! Created with skrf 2.1.0 (http://scikit-rf.org).
# GHz S RI R 50.0 
!freq ReS11 ImS11 ReS12 ImS12 ReS13 ImS13
! ReS14 ImS14
! ReS21 ImS21 ReS22 ImS22 ReS23 ImS23
! ReS24 ImS24
! ReS31 ImS31 ReS32 ImS32 ReS33 ImS33
! ReS34 ImS34
! ReS41 ImS41 ReS42 ImS42 ReS43 ImS43
! ReS44 ImS44
!
0.001 0.0 0.0 0.0 0.0 0.9931584399319193 -0.01078843300936712 0.0 0.0
 0.0 0.0 0.0 0.0 0.0 0.0 0.9931584399319193 -0.01078843300936712
 0.9931584399319193 -0.01078843300936712 0.0 0.0 0.0 0.0 0.0 0.0
 0.0 0.0 0.9931584399319193 -0.01078843300936712 0.0 0.0 0.0 0.0
0.015999 0.0 0.0 0.0 0.0 0.9574193859551383 -0.1680819411311151 0.0 0.0
 0.0 0.0 0.0 0.0 0.0 0.0 0.9574193859551383 -0.1680819411311151
 0.9574193859551383 -0.1680819411311151 0.0 0.0 0.0 0.0 0.0 0.0
 0.0 0.0 0.9574193859551383 -0.1680819411311151 0.0 0.0 0.0 0.0
0.030998 0.0 0.0 0.0 0.0 0.9066083300397701 -0.3173491137575536 0.0 0.0
 0.0 0.0 0.0 0.0 0.0 0.0 0.9066083300397701 -0.3173491137575536
 0.9066083300397701 -0.3173491137575536 0.0 0.0 0.0 0.0 0.0 0.0
 0.0 0.0 0.9066083300397701 -0.3173491137575536 0.0 0.0 0.0 0.0
0.045997 0.0 0.0 0.0 0.0 0.8351161070528653 -0.45582976911930506 0.0 0.0
 0.0 0.0 0.0 0.0 0.0 0.0 0.8351161070528653 -0.45582976911930506
 0.8351161070528653 -0.45582976911930506 0.0 0.0 0.0 0.0 0.0 0.0
 0.0 0.0 0.8351161070528653 -0.45582976911930506 0.0 0.0 0.0 0.0
0.060996 0.0 0.0 0.0 0.0 0.7439230914295075 -0.5804184787496203 0.0 0.0
 0.0 0.0 0.0 0.0 0.0 0.0 0.7439230914295075 -0.5804184787496203
 0.7439230914295075 -0.5804184787496203 0.0 0.0 0.0 0.0 0.0 0.0
 0.0 0.0 0.7439230914295075 -0.5804184787496203 0.0 0.0 0.0 0.0
0.075995 0.0 0.0 0.0 0.0 0.635151665527027 -0.6882275738453982 0.0 0.0
 0.0 0.0 0.0 0.0 0.0 0.0 0.635151665527027 -0.6882275738453982
 0.635151665527027 -0.6882275738453982 0.0 0.0 0.0 0.0 0.0 0.0
 0.0 0.0 0.635151665527027 -0.6882275738453982 0.0 0.0 0.0 0.0
0.090994 0.0 0.0 0.0 0.0 0.5115592998978707 -0.7767515097036102 0.0 0.0
 0.0 0.0 0.0 0.0 0.0 0.0 0.5115592998978707 -0.7767515097036102
 0.5115592998978707 -0.7767515097036102 0.0 0.0 0.0 0.0 0.0 0.0
 0.0 0.0 0.5115592998978707 -0.7767515097036102 0.0 0.0 0.0 0.0
0.105993 0.0 0.0 0.0 0.0 0.37634821219522485 -0.8439621538037877 0.0 0.0
 0.0 0.0 0.0 0.0 0.0 0.0 0.37634821219522485 -0.8439621538037877
 0.37634821219522485 -0.8439621538037877 0.0 0.0 0.0 0.0 0.0 0.0
 0.0 0.0 0.37634821219522485 -0.8439621538037877 0.0 0.0 0.0 0.0
0.120992 0.0 0.0 0.0 0.0 0.23303782251662158 -0.8883733348455449 0.0 0.0
 0.0 0.0 0.0 0.0 0.0 0.0 0.23303782251662158 -0.8883733348455449
 0.23303782251662158 -0.8883733348455449 0.0 0.0 0.0 0.0 0.0 0.0
 0.0 0.0 0.23303782251662158 -0.8883733348455449 0.0 0.0 0.0 0.0
0.135991 0.0 0.0 0.0 0.0 0.0853531868928445 -0.9090837958316564 0.0 0.0
 0.0 0.0 0.0 0.0 0.0 0.0 0.0853531868928445 -0.9090837958316564
 0.0853531868928445 -0.9090837958316564 0.0 0.0 0.0 0.0 0.0 0.0
 0.0 0.0 0.0853531868928445 -0.9090837958316564 0.0 0.0 0.0 0.0
0.15099 0.0 0.0 0.0 0.0 -0.0628819855895013 -0.905801334830874 0.0 0.0
 0.0 0.0 0.0 0.0 0.0 0.0 -0.0628819855895013 -0.905801334830874
 -0.0628819855895013 -0.905801334830874 0.0 0.0 0.0 0.0 0.0 0.0
 0.0 0.0 -0.0628819855895013 -0.905801334830874 0.0 0.0 0.0 0.0
0.165989 0.0 0.0 0.0 0.0 -0.2078500365827542 -0.8788492149618404 0.0 0.0
 0.0 0.0 0.0 0.0 0.0 0.0 -0.2078500365827542 -0.8788492149618404
 -0.2078500365827542 -0.8788492149618404 0.0 0.0 0.0 0.0 0.0 0.0
 0.0 0.0 -0.2078500365827542 -0.8788492149618404 0.0 0.0 0.0 0.0
0.180988 0.0 0.0 0.0 0.0 -0.3458411652131116 -0.8291555462004903 0.0 0.0
 0.0 0.0 0.0 0.0 0.0 0.0 -0.3458411652131116 -0.8291555462004903
 -0.3458411652131116 -0.8291555462004903 0.0 0.0 0.0 0.0 0.0 0.0
 0.0 0.0 -0.3458411652131116 -0.8291555462004903 0.0 0.0 0.0 0.0
0.195987 0.0 0.0 0.0 0.0 -0.4733506703400331 -0.7582264159798534 0.0 0.0
 0.0 0.0 0.0 0.0 0.0 0.0 -0.4733506703400331 -0.7582264159798534
 -0.4733506703400331 -0.7582264159798534 0.0 0.0 0.0 0.0 0.0 0.0
 0.0 0.0 -0.4733506703400331 -0.7582264159798534 0.0 0.0 0.0 0.0
0.210986 0.0 0.0 0.0 0.0 -0.5871696079849733 -0.6681037882608196 0.0 0.0
 0.0 0.0 0.0 0.0 0.0 0.0 -0.5871696079849733 -0.6681037882608196
 -0.5871696079849733 -0.6681037882608196 0.0 0.0 0.0 0.0 0.0 0.0
 0.0 0.0 -0.5871696079849733 -0.6681037882608196 0.0 0.0 0.0 0.0
0.225985 0.0 0.0 0.0 0.0 -0.6844668022718208 -0.5613094899972572 0.0 0.0
 0.0 0.0 0.0 0.0 0.0 0.0 -0.6844668022718208 -0.5613094899972572
 -0.6844668022718208 -0.5613094899972572 0.0 0.0 0.0 0.0 0.0 0.0
 0.0 0.0 -0.6844668022718208 -0.5613094899972572 0.0 0.0 0.0 0.0
0.240984 0.0 0.0 0.0 0.0 -0.7628602730219446 -0.4407769080648854 0.0 0.0
 0.0 0.0 0.0 0.0 0.0 0.0 -0.7628602730219446 -0.4407769080648854
 -0.7628602730219446 -0.4407769080648854 0.0 0.0 0.0 0.0 0.0 0.0
 0.0 0.0 -0.7628602730219446 -0.4407769080648854 0.0 0.0 0.0 0.0
0.255983 0.0 0.0 0.0 0.0 -0.8204763704887257 -0.3097723010595605 0.0 0.0
 0.0 0.0 0.0 0.0 0.0 0.0 -0.8204763704887257 -0.3097723010595605
 -0.8204763704887257 -0.3097723010595605 0.0 0.0 0.0 0.0 0.0 0.0
 0.0 0.0 -0.8204763704887257 -0.3097723010595605 0.0 0.0 0.0 0.0
0.270982 0.0 0.0 0.0 0.0 -0.8559952047485005 -0.17180787207048262 0.0 0.0
 0.0 0.0 0.0 0.0 0.0 0.0 -0.8559952047485005 -0.17180787207048262
 -0.8559952047485005 -0.17180787207048262 0.0 0.0 0.0 0.0 0.0 0.0
 0.0 0.0 -0.8559952047485005 -0.17180787207048262 0.0 0.0 0.0 0.0
0.285981 0.0 0.0 0.0 0.0 -0.8686813033678219 -0.03054893955138868 0.0 0.0
 0.0 0.0 0.0 0.0 0.0 0.0 -0.8686813033678219 -0.03054893955138868
 -0.8686813033678219 -0.03054893955138868 0.0 0.0 0.0 0.0 0.0 0.0
 0.0 0.0 -0.8686813033678219 -0.03054893955138868 0.0 0.0 0.0 0.0
0.30098 0.0 0.0 0.0 0.0 -0.8583988105912438 0.11028232364256439 0.0 0.0
 0.0 0.0 0.0 0.0 0.0 0.0 -0.8583988105912438 0.11028232364256439
 -0.8583988105912438 0.11028232364256439 0.0 0.0 0.0 0.0 0.0 0.0
 0.0 0.0 -0.8583988105912438 0.11028232364256439 0.0 0.0 0.0 0.0
0.315979 0.0 0.0 0.0 0.0 -0.8256109410717942 0.24700404277947682 0.0 0.0
 0.0 0.0 0.0 0.0 0.0 0.0 -0.8256109410717942 0.24700404277947682
 -0.8256109410717942 0.24700404277947682 0.0 0.0 0.0 0.0 0.0 0.0
 0.0 0.0 -0.8256109410717942 0.24700404277947682 0.0 0.0 0.0 0.0
0.330978 0.0 0.0 0.0 0.0 -0.7713638087644673 0.37607013997458516 0.0 0.0
 0.0 0.0 0.0 0.0 0.0 0.0 -0.7713638087644673 0.37607013997458516
 -0.7713638087644673 0.37607013997458516 0.0 0.0 0.0 0.0 0.0 0.0
 0.0 0.0 -0.7713638087644673 0.37607013997458516 0.0 0.0 0.0 0.0
0.345977 0.0 0.0 0.0 0.0 -0.6972551553278565 0.4941616940890533 0.0 0.0
 0.0 0.0 0.0 0.0 0.0 0.0 -0.6972551553278565 0.4941616940890533
 -0.6972551553278565 0.4941616940890533 0.0 0.0 0.0 0.0 0.0 0.0
 0.0 0.0 -0.6972551553278565 0.4941616940890533 0.0 0.0 0.0 0.0
0.360976 0.0 0.0 0.0 0.0 -0.60538889112283 0.5982718009446598 0.0 0.0
 0.0 0.0 0.0 0.0 0.0 0.0 -0.60538889112283 0.5982718009446598
 -0.60538889112283 0.5982718009446598 0.0 0.0 0.0 0.0 0.0 0.0
 0.0 0.0 -0.60538889112283 0.5982718009446598 0.0 0.0 0.0 0.0
0.375975 0.0 0.0 0.0 0.0 -0.4983167252395586 0.6857817576086335 0.0 0.0
 0.0 0.0 0.0 0.0 0.0 0.0 -0.4983167252395586 0.6857817576086335
 -0.4983167252395586 0.6857817576086335 0.0 0.0 0.0 0.0 0.0 0.0
 0.0 0.0 -0.4983167252395586 0.6857817576086335 0.0 0.0 0.0 0.0
0.390974 0.0 0.0 0.0 0.0 -0.37896848936084687 0.7545266345504625 0.0 0.0
 0.0 0.0 0.0 0.0 0.0 0.0 -0.37896848936084687 0.7545266345504625
 -0.37896848936084687 0.7545266345504625 0.0 0.0 0.0 0.0 0.0 0.0
 0.0 0.0 -0.37896848936084687 0.7545266345504625 0.0 0.0 0.0 0.0
0.405973 0.0 0.0 0.0 0.0 -0.250573045161794 0.8028485884734115 0.0 0.0
 0.0 0.0 0.0 0.0 0.0 0.0 -0.250573045161794 0.8028485884734115
 -0.250573045161794 0.8028485884734115 0.0 0.0 0.0 0.0 0.0 0.0
 0.0 0.0 -0.250573045161794 0.8028485884734115 0.0 0.0 0.0 0.0
0.420972 0.0 0.0 0.0 0.0 -0.11657189906519165 0.8296365988233593 0.0 0.0
 0.0 0.0 0.0 0.0 0.0 0.0 -0.11657189906519165 0.8296365988233593
 -0.11657189906519165 0.8296365988233593 0.0 0.0 0.0 0.0 0.0 0.0
 0.0 0.0 -0.11657189906519165 0.8296365988233593 0.0 0.0 0.0 0.0
0.435971 0.0 0.0 0.0 0.0 0.01947217437307301 0.8343516735677069 0.0 0.0
 0.0 0.0 0.0 0.0 0.0 0.0 0.01947217437307301 0.8343516735677069
 0.01947217437307301 0.8343516735677069 0.0 0.0 0.0 0.0 0.0 0.0
 0.0 0.0 0.01947217437307301 0.8343516735677069 0.0 0.0 0.0 0.0
0.45097 0.0 0.0 0.0 0.0 0.15396908274460677 0.8170369551972544 0.0 0.0
 0.0 0.0 0.0 0.0 0.0 0.0 0.15396908274460677 0.8170369551972544
 0.15396908274460677 0.8170369551972544 0.0 0.0 0.0 0.0 0.0 0.0
 0.0 0.0 0.15396908274460677 0.8170369551972544 0.0 0.0 0.0 0.0
0.465969 0.0 0.0 0.0 0.0 0.283395469356223 0.778312555861661 0.0 0.0
 0.0 0.0 0.0 0.0 0.0 0.0 0.283395469356223 0.778312555861661
 0.283395469356223 0.778312555861661 0.0 0.0 0.0 0.0 0.0 0.0
 0.0 0.0 0.283395469356223 0.778312555861661 0.0 0.0 0.0 0.0
0.480968 0.0 0.0 0.0 0.0 0.4043864118268706 0.7193553506516464 0.0 0.0
 0.0 0.0 0.0 0.0 0.0 0.0 0.4043864118268706 0.7193553506516464
 0.4043864118268706 0.7193553506516464 0.0 0.0 0.0 0.0 0.0 0.0
 0.0 0.0 0.4043864118268706 0.7193553506516464 0.0 0.0 0.0 0.0
0.495967 0.0 0.0 0.0 0.0 0.5138223837088193 0.6418643498317104 0.0 0.0
 0.0 0.0 0.0 0.0 0.0 0.0 0.5138223837088193 0.6418643498317104
 0.5138223837088193 0.6418643498317104 0.0 0.0 0.0 0.0 0.0 0.0
 0.0 0.0 0.5138223837088193 0.6418643498317104 0.0 0.0 0.0 0.0
0.510966 0.0 0.0 0.0 0.0 0.60890923517269 0.5480126441199125 0.0 0.0
 0.0 0.0 0.0 0.0 0.0 0.0 0.60890923517269 0.5480126441199125
 0.60890923517269 0.5480126441199125 0.0 0.0 0.0 0.0 0.0 0.0
 0.0 0.0 0.60890923517269 0.5480126441199125 0.0 0.0 0.0 0.0
0.525965 0.0 0.0 0.0 0.0 0.6872491446863344 0.44038726225667496 0.0 0.0
 0.0 0.0 0.0 0.0 0.0 0.0 0.6872491446863344 0.44038726225667496
 0.6872491446863344 0.44038726225667496 0.0 0.0 0.0 0.0 0.0 0.0
 0.0 0.0 0.6872491446863344 0.44038726225667496 0.0 0.0 0.0 0.0
0.540964 0.0 0.0 0.0 0.0 0.7469007419151202 0.32191858823979513 0.0 0.0
 0.0 0.0 0.0 0.0 0.0 0.0 0.7469007419151202 0.32191858823979513
 0.7469007419151202 0.32191858823979513 0.0 0.0 0.0 0.0 0.0 0.0
 0.0 0.0 0.7469007419151202 0.32191858823979513 0.0 0.0 0.0 0.0
0.555963 0.0 0.0 0.0 0.0 0.7864268959947752 0.19580124887971462 0.0 0.0
 0.0 0.0 0.0 0.0 0.0 0.0 0.7864268959947752 0.19580124887971462
 0.7864268959947752 0.19580124887971462 0.0 0.0 0.0 0.0 0.0 0.0
 0.0 0.0 0.7864268959947752 0.19580124887971462 0.0 0.0 0.0 0.0
0.570962 0.0 0.0 0.0 0.0 0.8049289949390084 0.06540859411429895 0.0 0.0
 0.0 0.0 0.0 0.0 0.0 0.0 0.8049289949390084 0.06540859411429895
 0.8049289949390084 0.06540859411429895 0.0 0.0 0.0 0.0 0.0 0.0
 0.0 0.0 0.8049289949390084 0.06540859411429895 0.0 0.0 0.0 0.0
0.585961 0.0 0.0 0.0 0.0 0.8020669023605563 -0.06579695243510093 0.0 0.0
 0.0 0.0 0.0 0.0 0.0 0.0 0.8020669023605563 -0.06579695243510093
 0.8020669023605563 -0.06579695243510093 0.0 0.0 0.0 0.0 0.0 0.0
 0.0 0.0 0.8020669023605563 -0.06579695243510093 0.0 0.0 0.0 0.0
0.60096 0.0 0.0 0.0 0.0 0.7780641573180344 -0.194355300623193 0.0 0.0
 0.0 0.0 0.0 0.0 0.0 0.0 0.7780641573180344 -0.194355300623193
 0.7780641573180344 -0.194355300623193 0.0 0.0 0.0 0.0 0.0 0.0
 0.0 0.0 0.7780641573180344 -0.194355300623193 0.0 0.0 0.0 0.0
0.615959 0.0 0.0 0.0 0.0 0.7336983719127914 -0.3168994546688597 0.0 0.0
 0.0 0.0 0.0 0.0 0.0 0.0 0.7336983719127914 -0.3168994546688597
 0.7336983719127914 -0.3168994546688597 0.0 0.0 0.0 0.0 0.0 0.0
 0.0 0.0 0.7336983719127914 -0.3168994546688597 0.0 0.0 0.0 0.0
0.630958 0.0 0.0 0.0 0.0 0.6702771690245445 -0.43024325494430804 0.0 0.0
 0.0 0.0 0.0 0.0 0.0 0.0 0.6702771690245445 -0.43024325494430804
 0.6702771690245445 -0.43024325494430804 0.0 0.0 0.0 0.0 0.0 0.0
 0.0 0.0 0.6702771690245445 -0.43024325494430804 0.0 0.0 0.0 0.0
0.645957 0.0 0.0 0.0 0.0 0.5896003791493627 -0.531463820932957 0.0 0.0
 0.0 0.0 0.0 0.0 0.0 0.0 0.5896003791493627 -0.531463820932957
 0.5896003791493627 -0.531463820932957 0.0 0.0 0.0 0.0 0.0 0.0
 0.0 0.0 0.5896003791493627 -0.531463820932957 0.0 0.0 0.0 0.0
0.660956 0.0 0.0 0.0 0.0 0.49390957089370613 -0.6179765678720529 0.0 0.0
 0.0 0.0 0.0 0.0 0.0 0.0 0.49390957089370613 -0.6179765678720529
 0.49390957089370613 -0.6179765678720529 0.0 0.0 0.0 0.0 0.0 0.0
 0.0 0.0 0.49390957089370613 -0.6179765678720529 0.0 0.0 0.0 0.0
0.675955 0.0 0.0 0.0 0.0 0.38582631509122955 -0.6876008766814731 0.0 0.0
 0.0 0.0 0.0 0.0 0.0 0.0 0.38582631509122955 -0.6876008766814731
 0.38582631509122955 -0.6876008766814731 0.0 0.0 0.0 0.0 0.0 0.0
 0.0 0.0 0.38582631509122955 -0.6876008766814731 0.0 0.0 0.0 0.0
0.690954 0.0 0.0 0.0 0.0 0.2682808693924986 -0.7386147529744609 0.0 0.0
 0.0 0.0 0.0 0.0 0.0 0.0 0.2682808693924986 -0.7386147529744609
 0.2682808693924986 -0.7386147529744609 0.0 0.0 0.0 0.0 0.0 0.0
 0.0 0.0 0.2682808693924986 -0.7386147529744609 0.0 0.0 0.0 0.0
0.705953 0.0 0.0 0.0 0.0 0.1444332112330552 -0.7697971092662571 0.0 0.0
 0.0 0.0 0.0 0.0 0.0 0.0 0.1444332112330552 -0.7697971092662571
 0.1444332112330552 -0.7697971092662571 0.0 0.0 0.0 0.0 0.0 0.0
 0.0 0.0 0.1444332112330552 -0.7697971092662571 0.0 0.0 0.0 0.0
0.720952 0.0 0.0 0.0 0.0 0.01758853625408447 -0.7804566368940797 0.0 0.0
 0.0 0.0 0.0 0.0 0.0 0.0 0.01758853625408447 -0.7804566368940797
 0.01758853625408447 -0.7804566368940797 0.0 0.0 0.0 0.0 0.0 0.0
 0.0 0.0 0.01758853625408447 -0.7804566368940797 0.0 0.0 0.0 0.0
0.735951 0.0 0.0 0.0 0.0 -0.10889052813467724 -0.7704465917395934 0.0 0.0
 0.0 0.0 0.0 0.0 0.0 0.0 -0.10889052813467724 -0.7704465917395934
 -0.10889052813467724 -0.7704465917395934 0.0 0.0 0.0 0.0 0.0 0.0
 0.0 0.0 -0.10889052813467724 -0.7704465917395934 0.0 0.0 0.0 0.0
0.75095 0.0 0.0 0.0 0.0 -0.231672671458052 -0.7401651910940826 0.0 0.0
 0.0 0.0 0.0 0.0 0.0 0.0 -0.231672671458052 -0.7401651910940826
 -0.231672671458052 -0.7401651910940826 0.0 0.0 0.0 0.0 0.0 0.0
 0.0 0.0 -0.231672671458052 -0.7401651910940826 0.0 0.0 0.0 0.0
0.765949 0.0 0.0 0.0 0.0 -0.34754527694228865 -0.690541698059398 0.0 0.0
 0.0 0.0 0.0 0.0 0.0 0.0 -0.34754527694228865 -0.690541698059398
 -0.34754527694228865 -0.690541698059398 0.0 0.0 0.0 0.0 0.0 0.0
 0.0 0.0 -0.34754527694228865 -0.690541698059398 0.0 0.0 0.0 0.0
0.780948 0.0 0.0 0.0 0.0 -0.45349814178848363 -0.6230086447681233 0.0 0.0
 0.0 0.0 0.0 0.0 0.0 0.0 -0.45349814178848363 -0.6230086447681233
 -0.45349814178848363 -0.6230086447681233 0.0 0.0 0.0 0.0 0.0 0.0
 0.0 0.0 -0.45349814178848363 -0.6230086447681233 0.0 0.0 0.0 0.0
0.795947 0.0 0.0 0.0 0.0 -0.5468013656546186 -0.5394610066310878 0.0 0.0
 0.0 0.0 0.0 0.0 0.0 0.0 -0.5468013656546186 -0.5394610066310878
 -0.5468013656546186 -0.5394610066310878 0.0 0.0 0.0 0.0 0.0 0.0
 0.0 0.0 -0.5468013656546186 -0.5394610066310878 0.0 0.0 0.0 0.0
0.810946 0.0 0.0 0.0 0.0 -0.6250753977267894 -0.4422034773954578 0.0 0.0
 0.0 0.0 0.0 0.0 0.0 0.0 -0.6250753977267894 -0.4422034773954578
 -0.6250753977267894 -0.4422034773954578 0.0 0.0 0.0 0.0 0.0 0.0
 0.0 0.0 -0.6250753977267894 -0.4422034773954578 0.0 0.0 0.0 0.0
0.825945 0.0 0.0 0.0 0.0 -0.6863514502019964 -0.3338873003007461 0.0 0.0
 0.0 0.0 0.0 0.0 0.0 0.0 -0.6863514502019964 -0.3338873003007461
 -0.6863514502019964 -0.3338873003007461 0.0 0.0 0.0 0.0 0.0 0.0
 0.0 0.0 -0.6863514502019964 -0.3338873003007461 0.0 0.0 0.0 0.0
0.840944 0.0 0.0 0.0 0.0 -0.7291207492211075 -0.21743837622024467 0.0 0.0
 0.0 0.0 0.0 0.0 0.0 0.0 -0.7291207492211075 -0.21743837622024467
 -0.7291207492211075 -0.21743837622024467 0.0 0.0 0.0 0.0 0.0 0.0
 0.0 0.0 -0.7291207492211075 -0.21743837622024467 0.0 0.0 0.0 0.0
0.855943 0.0 0.0 0.0 0.0 -0.7523713961257426 -0.0959785886268318 0.0 0.0
 0.0 0.0 0.0 0.0 0.0 0.0 -0.7523713961257426 -0.0959785886268318
 -0.7523713961257426 -0.0959785886268318 0.0 0.0 0.0 0.0 0.0 0.0
 0.0 0.0 -0.7523713961257426 -0.0959785886268318 0.0 0.0 0.0 0.0
0.870942 0.0 0.0 0.0 0.0 -0.7556119442365978 0.027257547960065846 0.0 0.0
 0.0 0.0 0.0 0.0 0.0 0.0 -0.7556119442365978 0.027257547960065846
 -0.7556119442365978 0.027257547960065846 0.0 0.0 0.0 0.0 0.0 0.0
 0.0 0.0 -0.7556119442365978 0.027257547960065846 0.0 0.0 0.0 0.0
0.885941 0.0 0.0 0.0 0.0 -0.7388811502774918 0.14900869879343828 0.0 0.0
 0.0 0.0 0.0 0.0 0.0 0.0 -0.7388811502774918 0.14900869879343828
 -0.7388811502774918 0.14900869879343828 0.0 0.0 0.0 0.0 0.0 0.0
 0.0 0.0 -0.7388811502774918 0.14900869879343828 0.0 0.0 0.0 0.0
0.90094 0.0 0.0 0.0 0.0 -0.7027437256948135 0.2660727099475392 0.0 0.0
 0.0 0.0 0.0 0.0 0.0 0.0 -0.7027437256948135 0.2660727099475392
 -0.7027437256948135 0.2660727099475392 0.0 0.0 0.0 0.0 0.0 0.0
 0.0 0.0 -0.7027437256948135 0.2660727099475392 0.0 0.0 0.0 0.0
0.915939 0.0 0.0 0.0 0.0 -0.6482722817724729 0.37539053862543276 0.0 0.0
 0.0 0.0 0.0 0.0 0.0 0.0 -0.6482722817724729 0.37539053862543276
 -0.6482722817724729 0.37539053862543276 0.0 0.0 0.0 0.0 0.0 0.0
 0.0 0.0 -0.6482722817724729 0.37539053862543276 0.0 0.0 0.0 0.0
0.930938 0.0 0.0 0.0 0.0 -0.5770160239301012 0.47412591912558805 0.0 0.0
 0.0 0.0 0.0 0.0 0.0 0.0 -0.5770160239301012 0.47412591912558805
 -0.5770160239301012 0.47412591912558805 0.0 0.0 0.0 0.0 0.0 0.0
 0.0 0.0 -0.5770160239301012 0.47412591912558805 0.0 0.0 0.0 0.0
0.945937 0.0 0.0 0.0 0.0 -0.4909570954694966 0.5597386954522601 0.0 0.0
 0.0 0.0 0.0 0.0 0.0 0.0 -0.4909570954694966 0.5597386954522601
 -0.4909570954694966 0.5597386954522601 0.0 0.0 0.0 0.0 0.0 0.0
 0.0 0.0 -0.4909570954694966 0.5597386954522601 0.0 0.0 0.0 0.0
0.960936 0.0 0.0 0.0 0.0 -0.39245579034013933 0.6300499297674346 0.0 0.0
 0.0 0.0 0.0 0.0 0.0 0.0 -0.39245579034013933 0.6300499297674346
 -0.39245579034013933 0.6300499297674346 0.0 0.0 0.0 0.0 0.0 0.0
 0.0 0.0 -0.39245579034013933 0.6300499297674346 0.0 0.0 0.0 0.0
0.975935 0.0 0.0 0.0 0.0 -0.28418613998723774 0.6832971227515567 0.0 0.0
 0.0 0.0 0.0 0.0 0.0 0.0 -0.28418613998723774 0.6832971227515567
 -0.28418613998723774 0.6832971227515567 0.0 0.0 0.0 0.0 0.0 0.0
 0.0 0.0 -0.28418613998723774 0.6832971227515567 0.0 0.0 0.0 0.0
0.990934 0.0 0.0 0.0 0.0 -0.1690636237152591 0.7181781512435124 0.0 0.0
 0.0 0.0 0.0 0.0 0.0 0.0 -0.1690636237152591 0.7181781512435124
 -0.1690636237152591 0.7181781512435124 0.0 0.0 0.0 0.0 0.0 0.0
 0.0 0.0 -0.1690636237152591 0.7181781512435124 0.0 0.0 0.0 0.0
1.005933 0.0 0.0 0.0 0.0 -0.050166949054645124 0.7338828329644895 0.0 0.0
 0.0 0.0 0.0 0.0 0.0 0.0 -0.050166949054645124 0.7338828329644895
 -0.050166949054645124 0.7338828329644895 0.0 0.0 0.0 0.0 0.0 0.0
 0.0 0.0 -0.050166949054645124 0.7338828329644895 0.0 0.0 0.0 0.0
1.020932 0.0 0.0 0.0 0.0 0.06934400655652859 0.7301113595090655 0.0 0.0
 0.0 0.0 0.0 0.0 0.0 0.0 0.06934400655652859 0.7301113595090655
 0.06934400655652859 0.7301113595090655 0.0 0.0 0.0 0.0 0.0 0.0
 0.0 0.0 0.06934400655652859 0.7301113595090655 0.0 0.0 0.0 0.0
1.035931 0.0 0.0 0.0 0.0 0.18631191238951572 0.707079188260575 0.0 0.0
 0.0 0.0 0.0 0.0 0.0 0.0 0.18631191238951572 0.707079188260575
 0.18631191238951572 0.707079188260575 0.0 0.0 0.0 0.0 0.0 0.0
 0.0 0.0 0.18631191238951572 0.707079188260575 0.0 0.0 0.0 0.0
1.05093 0.0 0.0 0.0 0.0 0.29766514766463237 0.6655083421788658 0.0 0.0
 0.0 0.0 0.0 0.0 0.0 0.0 0.29766514766463237 0.6655083421788658
 0.29766514766463237 0.6655083421788658 0.0 0.0 0.0 0.0 0.0 0.0
 0.0 0.0 0.29766514766463237 0.6655083421788658 0.0 0.0 0.0 0.0
1.065929 0.0 0.0 0.0 0.0 0.40049822674135827 0.6066054240574854 0.0 0.0
 0.0 0.0 0.0 0.0 0.0 0.0 0.40049822674135827 0.6066054240574854
 0.40049822674135827 0.6066054240574854 0.0 0.0 0.0 0.0 0.0 0.0
 0.0 0.0 0.40049822674135827 0.6066054240574854 0.0 0.0 0.0 0.0
1.080928 0.0 0.0 0.0 0.0 0.4921473858568824 0.5320269994618668 0.0 0.0
 0.0 0.0 0.0 0.0 0.0 0.0 0.4921473858568824 0.5320269994618668
 0.4921473858568824 0.5320269994618668 0.0 0.0 0.0 0.0 0.0 0.0
 0.0 0.0 0.4921473858568824 0.5320269994618668 0.0 0.0 0.0 0.0
1.095927 0.0 0.0 0.0 0.0 0.5702593700237027 0.4438333310617688 0.0 0.0
 0.0 0.0 0.0 0.0 0.0 0.0 0.5702593700237027 0.4438333310617688
 0.5702593700237027 0.4438333310617688 0.0 0.0 0.0 0.0 0.0 0.0
 0.0 0.0 0.5702593700237027 0.4438333310617688 0.0 0.0 0.0 0.0
1.110926 0.0 0.0 0.0 0.0 0.6328516485029054 0.3444317479316033 0.0 0.0
 0.0 0.0 0.0 0.0 0.0 0.0 0.6328516485029054 0.3444317479316033
 0.6328516485029054 0.3444317479316033 0.0 0.0 0.0 0.0 0.0 0.0
 0.0 0.0 0.6328516485029054 0.3444317479316033 0.0 0.0 0.0 0.0
1.125925 0.0 0.0 0.0 0.0 0.6783625226061942 0.2365111988548206 0.0 0.0
 0.0 0.0 0.0 0.0 0.0 0.0 0.6783625226061942 0.2365111988548206
 0.6783625226061942 0.2365111988548206 0.0 0.0 0.0 0.0 0.0 0.0
 0.0 0.0 0.6783625226061942 0.2365111988548206 0.0 0.0 0.0 0.0
1.140924 0.0 0.0 0.0 0.0 0.7056898640162462 0.12296976194761026 0.0 0.0
 0.0 0.0 0.0 0.0 0.0 0.0 0.7056898640162462 0.12296976194761026
 0.7056898640162462 0.12296976194761026 0.0 0.0 0.0 0.0 0.0 0.0
 0.0 0.0 0.7056898640162462 0.12296976194761026 0.0 0.0 0.0 0.0
1.155923 0.0 0.0 0.0 0.0 0.7142175279275454 0.006837058371374577 0.0 0.0
 0.0 0.0 0.0 0.0 0.0 0.0 0.7142175279275454 0.006837058371374577
 0.7142175279275454 0.006837058371374577 0.0 0.0 0.0 0.0 0.0 0.0
 0.0 0.0 0.7142175279275454 0.006837058371374577 0.0 0.0 0.0 0.0
1.170922 0.0 0.0 0.0 0.0 0.7038288148812731 -0.10880635882151352 0.0 0.0
 0.0 0.0 0.0 0.0 0.0 0.0 0.7038288148812731 -0.10880635882151352
 0.7038288148812731 -0.10880635882151352 0.0 0.0 0.0 0.0 0.0 0.0
 0.0 0.0 0.7038288148812731 -0.10880635882151352 0.0 0.0 0.0 0.0
1.185921 0.0 0.0 0.0 0.0 0.6749066994083188 -0.22091050152888786 0.0 0.0
 0.0 0.0 0.0 0.0 0.0 0.0 0.6749066994083188 -0.22091050152888786
 0.6749066994083188 -0.22091050152888786 0.0 0.0 0.0 0.0 0.0 0.0
 0.0 0.0 0.6749066994083188 -0.22091050152888786 0.0 0.0 0.0 0.0
1.20092 0.0 0.0 0.0 0.0 0.6283208933747346 -0.32653617844710026 0.0 0.0
 0.0 0.0 0.0 0.0 0.0 0.0 0.6283208933747346 -0.32653617844710026
 0.6283208933747346 -0.32653617844710026 0.0 0.0 0.0 0.0 0.0 0.0
 0.0 0.0 0.6283208933747346 -0.32653617844710026 0.0 0.0 0.0 0.0
1.215919 0.0 0.0 0.0 0.0 0.5654021580174982 -0.4229318563806458 0.0 0.0
 0.0 0.0 0.0 0.0 0.0 0.0 0.5654021580174982 -0.4229318563806458
 0.5654021580174982 -0.4229318563806458 0.0 0.0 0.0 0.0 0.0 0.0
 0.0 0.0 0.5654021580174982 -0.4229318563806458 0.0 0.0 0.0 0.0
1.230918 0.0 0.0 0.0 0.0 0.48790461198421453 -0.5076051457459397 0.0 0.0
 0.0 0.0 0.0 0.0 0.0 0.0 0.48790461198421453 -0.5076051457459397
 0.48790461198421453 -0.5076051457459397 0.0 0.0 0.0 0.0 0.0 0.0
 0.0 0.0 0.48790461198421453 -0.5076051457459397 0.0 0.0 0.0 0.0
1.245917 0.0 0.0 0.0 0.0 0.3979570945507579 -0.5783870574935391 0.0 0.0
 0.0 0.0 0.0 0.0 0.0 0.0 0.3979570945507579 -0.5783870574935391
 0.3979570945507579 -0.5783870574935391 0.0 0.0 0.0 0.0 0.0 0.0
 0.0 0.0 0.3979570945507579 -0.5783870574935391 0.0 0.0 0.0 0.0
1.260916 0.0 0.0 0.0 0.0 0.2980049254984244 -0.6334873790885093 0.0 0.0
 0.0 0.0 0.0 0.0 0.0 0.0 0.2980049254984244 -0.6334873790885093
 0.2980049254984244 -0.6334873790885093 0.0 0.0 0.0 0.0 0.0 0.0
 0.0 0.0 0.2980049254984244 -0.6334873790885093 0.0 0.0 0.0 0.0
1.275915 0.0 0.0 0.0 0.0 0.19074364861858203 -0.6715397600017935 0.0 0.0
 0.0 0.0 0.0 0.0 0.0 0.0 0.19074364861858203 -0.6715397600017935
 0.19074364861858203 -0.6715397600017935 0.0 0.0 0.0 0.0 0.0 0.0
 0.0 0.0 0.19074364861858203 -0.6715397600017935 0.0 0.0 0.0 0.0
1.290914 0.0 0.0 0.0 0.0 0.07904654821682949 -0.6916353757635005 0.0 0.0
 0.0 0.0 0.0 0.0 0.0 0.0 0.07904654821682949 -0.6916353757635005
 0.07904654821682949 -0.6916353757635005 0.0 0.0 0.0 0.0 0.0 0.0
 0.0 0.0 0.07904654821682949 -0.6916353757635005 0.0 0.0 0.0 0.0
1.305913 0.0 0.0 0.0 0.0 -0.03411211778626488 -0.6933443464937213 0.0 0.0
 0.0 0.0 0.0 0.0 0.0 0.0 -0.03411211778626488 -0.6933443464937213
 -0.03411211778626488 -0.6933443464937213 0.0 0.0 0.0 0.0 0.0 0.0
 0.0 0.0 -0.03411211778626488 -0.6933443464937213 0.0 0.0 0.0 0.0
1.320912 0.0 0.0 0.0 0.0 -0.1457361223164394 -0.6767244127344617 0.0 0.0
 0.0 0.0 0.0 0.0 0.0 0.0 -0.1457361223164394 -0.6767244127344617
 -0.1457361223164394 -0.6767244127344617 0.0 0.0 0.0 0.0 0.0 0.0
 0.0 0.0 -0.1457361223164394 -0.6767244127344617 0.0 0.0 0.0 0.0
1.335911 0.0 0.0 0.0 0.0 -0.25288641747958046 -0.6423167096506293 0.0 0.0
 0.0 0.0 0.0 0.0 0.0 0.0 -0.25288641747958046 -0.6423167096506293
 -0.25288641747958046 -0.6423167096506293 0.0 0.0 0.0 0.0 0.0 0.0
 0.0 0.0 -0.25288641747958046 -0.6423167096506293 0.0 0.0 0.0 0.0
1.35091 0.0 0.0 0.0 0.0 -0.35275834059856725 -0.5911288212886988 0.0 0.0
 0.0 0.0 0.0 0.0 0.0 0.0 -0.35275834059856725 -0.5911288212886988
 -0.35275834059856725 -0.5911288212886988 0.0 0.0 0.0 0.0 0.0 0.0
 0.0 0.0 -0.35275834059856725 -0.5911288212886988 0.0 0.0 0.0 0.0
1.365909 0.0 0.0 0.0 0.0 -0.44275485418193483 -0.5246056306027892 0.0 0.0
 0.0 0.0 0.0 0.0 0.0 0.0 -0.44275485418193483 -0.5246056306027892
 -0.44275485418193483 -0.5246056306027892 0.0 0.0 0.0 0.0 0.0 0.0
 0.0 0.0 -0.44275485418193483 -0.5246056306027892 0.0 0.0 0.0 0.0
1.380908 0.0 0.0 0.0 0.0 -0.5205539113985905 -0.44458879962402387 0.0 0.0
 0.0 0.0 0.0 0.0 0.0 0.0 -0.5205539113985905 -0.44458879962402387
 -0.5205539113985905 -0.44458879962402387 0.0 0.0 0.0 0.0 0.0 0.0
 0.0 0.0 -0.5205539113985905 -0.44458879962402387 0.0 0.0 0.0 0.0
1.395907 0.0 0.0 0.0 0.0 -0.5841682036122118 -0.35326600915381223 0.0 0.0
 0.0 0.0 0.0 0.0 0.0 0.0 -0.5841682036122118 -0.35326600915381223
 -0.5841682036122118 -0.35326600915381223 0.0 0.0 0.0 0.0 0.0 0.0
 0.0 0.0 -0.5841682036122118 -0.35326600915381223 0.0 0.0 0.0 0.0
1.410906 0.0 0.0 0.0 0.0 -0.631995756538824 -0.25311135106483557 0.0 0.0
 0.0 0.0 0.0 0.0 0.0 0.0 -0.631995756538824 -0.25311135106483557
 -0.631995756538824 -0.25311135106483557 0.0 0.0 0.0 0.0 0.0 0.0
 0.0 0.0 -0.631995756538824 -0.25311135106483557 0.0 0.0 0.0 0.0
1.425905 0.0 0.0 0.0 0.0 -0.6628600908682908 -0.14681849191751573 0.0 0.0
 0.0 0.0 0.0 0.0 0.0 0.0 -0.6628600908682908 -0.14681849191751573
 -0.6628600908682908 -0.14681849191751573 0.0 0.0 0.0 0.0 0.0 0.0
 0.0 0.0 -0.6628600908682908 -0.14681849191751573 0.0 0.0 0.0 0.0
1.440904 0.0 0.0 0.0 0.0 -0.6760389449675354 -0.03722840840430276 0.0 0.0
 0.0 0.0 0.0 0.0 0.0 0.0 -0.6760389449675354 -0.03722840840430276
 -0.6760389449675354 -0.03722840840430276 0.0 0.0 0.0 0.0 0.0 0.0
 0.0 0.0 -0.6760389449675354 -0.03722840840430276 0.0 0.0 0.0 0.0
1.455903 0.0 0.0 0.0 0.0 -0.6712808639725042 0.07274637143788314 0.0 0.0
 0.0 0.0 0.0 0.0 0.0 0.0 -0.6712808639725042 0.07274637143788314
 -0.6712808639725042 0.07274637143788314 0.0 0.0 0.0 0.0 0.0 0.0
 0.0 0.0 -0.6712808639725042 0.07274637143788314 0.0 0.0 0.0 0.0
1.470902 0.0 0.0 0.0 0.0 -0.6488092829732787 0.18019900551646806 0.0 0.0
 0.0 0.0 0.0 0.0 0.0 0.0 -0.6488092829732787 0.18019900551646806
 -0.6488092829732787 0.18019900551646806 0.0 0.0 0.0 0.0 0.0 0.0
 0.0 0.0 -0.6488092829732787 0.18019900551646806 0.0 0.0 0.0 0.0
1.485901 0.0 0.0 0.0 0.0 -0.6093140635003192 0.2823050094746692 0.0 0.0
 0.0 0.0 0.0 0.0 0.0 0.0 -0.6093140635003192 0.2823050094746692
 -0.6093140635003192 0.2823050094746692 0.0 0.0 0.0 0.0 0.0 0.0
 0.0 0.0 -0.6093140635003192 0.2823050094746692 0.0 0.0 0.0 0.0
1.5009 0.0 0.0 0.0 0.0 -0.5539307733588399 0.3763963447075485 0.0 0.0
 0.0 0.0 0.0 0.0 0.0 0.0 -0.5539307733588399 0.3763963447075485
 -0.5539307733588399 0.3763963447075485 0.0 0.0 0.0 0.0 0.0 0.0
 0.0 0.0 -0.5539307733588399 0.3763963447075485 0.0 0.0 0.0 0.0
1.515899 0.0 0.0 0.0 0.0 -0.48420832132424735 0.460030983076779 0.0 0.0
 0.0 0.0 0.0 0.0 0.0 0.0 -0.48420832132424735 0.460030983076779
 -0.48420832132424735 0.460030983076779 0.0 0.0 0.0 0.0 0.0 0.0
 0.0 0.0 -0.48420832132424735 0.460030983076779 0.0 0.0 0.0 0.0
1.530898 0.0 0.0 0.0 0.0 -0.4020658618875186 0.5310561382330389 0.0 0.0
 0.0 0.0 0.0 0.0 0.0 0.0 -0.4020658618875186 0.5310561382330389
 -0.4020658618875186 0.5310561382330389 0.0 0.0 0.0 0.0 0.0 0.0
 0.0 0.0 -0.4020658618875186 0.5310561382330389 0.0 0.0 0.0 0.0
1.545897 0.0 0.0 0.0 0.0 -0.30974016321955766 0.5876635299022023 0.0 0.0
 0.0 0.0 0.0 0.0 0.0 0.0 -0.30974016321955766 0.5876635299022023
 -0.30974016321955766 0.5876635299022023 0.0 0.0 0.0 0.0 0.0 0.0
 0.0 0.0 -0.30974016321955766 0.5876635299022023 0.0 0.0 0.0 0.0
1.560896 0.0 0.0 0.0 0.0 -0.20972487661945394 0.6284352660608589 0.0 0.0
 0.0 0.0 0.0 0.0 0.0 0.0 -0.20972487661945394 0.6284352660608589
 -0.20972487661945394 0.6284352660608589 0.0 0.0 0.0 0.0 0.0 0.0
 0.0 0.0 -0.20972487661945394 0.6284352660608589 0.0 0.0 0.0 0.0
1.575895 0.0 0.0 0.0 0.0 -0.10470335163690714 0.6523791826445814 0.0 0.0
 0.0 0.0 0.0 0.0 0.0 0.0 -0.10470335163690714 0.6523791826445814
 -0.10470335163690714 0.6523791826445814 0.0 0.0 0.0 0.0 0.0 0.0
 0.0 0.0 -0.10470335163690714 0.6523791826445814 0.0 0.0 0.0 0.0
1.590894 0.0 0.0 0.0 0.0 0.002523197408712787 0.6589527644031957 0.0 0.0
 0.0 0.0 0.0 0.0 0.0 0.0 0.002523197408712787 0.6589527644031957
 0.002523197408712787 0.6589527644031957 0.0 0.0 0.0 0.0 0.0 0.0
 0.0 0.0 0.002523197408712787 0.6589527644031957 0.0 0.0 0.0 0.0
1.605893 0.0 0.0 0.0 0.0 0.10911025467823225 0.6480750761105151 0.0 0.0
 0.0 0.0 0.0 0.0 0.0 0.0 0.10911025467823225 0.6480750761105151
 0.10911025467823225 0.6480750761105151 0.0 0.0 0.0 0.0 0.0 0.0
 0.0 0.0 0.10911025467823225 0.6480750761105151 0.0 0.0 0.0 0.0
1.620892 0.0 0.0 0.0 0.0 0.21224531503674812 0.6201264523902733 0.0 0.0
 0.0 0.0 0.0 0.0 0.0 0.0 0.21224531503674812 0.6201264523902733
 0.21224531503674812 0.6201264523902733 0.0 0.0 0.0 0.0 0.0 0.0
 0.0 0.0 0.21224531503674812 0.6201264523902733 0.0 0.0 0.0 0.0
1.635891 0.0 0.0 0.0 0.0 0.30922195501902644 0.5759360184608534 0.0 0.0
 0.0 0.0 0.0 0.0 0.0 0.0 0.30922195501902644 0.5759360184608534
 0.30922195501902644 0.5759360184608534 0.0 0.0 0.0 0.0 0.0 0.0
 0.0 0.0 0.30922195501902644 0.5759360184608534 0.0 0.0 0.0 0.0
1.65089 0.0 0.0 0.0 0.0 0.3975107153673244 0.5167574345661053 0.0 0.0
 0.0 0.0 0.0 0.0 0.0 0.0 0.3975107153673244 0.5167574345661053
 0.3975107153673244 0.5167574345661053 0.0 0.0 0.0 0.0 0.0 0.0
 0.0 0.0 0.3975107153673244 0.5167574345661053 0.0 0.0 0.0 0.0
1.665889 0.0 0.0 0.0 0.0 0.4748249421364466 0.4442335653226844 0.0 0.0
 0.0 0.0 0.0 0.0 0.0 0.0 0.4748249421364466 0.4442335653226844
 0.4748249421364466 0.4442335653226844 0.0 0.0 0.0 0.0 0.0 0.0
 0.0 0.0 0.4748249421364466 0.4442335653226844 0.0 0.0 0.0 0.0
1.680888 0.0 0.0 0.0 0.0 0.5391798758824924 0.3603510636093066 0.0 0.0
 0.0 0.0 0.0 0.0 0.0 0.0 0.5391798758824924 0.3603510636093066
 0.5391798758824924 0.3603510636093066 0.0 0.0 0.0 0.0 0.0 0.0
 0.0 0.0 0.5391798758824924 0.3603510636093066 0.0 0.0 0.0 0.0
1.695887 0.0 0.0 0.0 0.0 0.5889434653296649 0.2673861194529529 0.0 0.0
 0.0 0.0 0.0 0.0 0.0 0.0 0.5889434653296649 0.2673861194529529
 0.5889434653296649 0.2673861194529529 0.0 0.0 0.0 0.0 0.0 0.0
 0.0 0.0 0.5889434653296649 0.2673861194529529 0.0 0.0 0.0 0.0
1.710886 0.0 0.0 0.0 0.0 0.6228776079940527 0.1678428508976947 0.0 0.0
 0.0 0.0 0.0 0.0 0.0 0.0 0.6228776079940527 0.1678428508976947
 0.6228776079940527 0.1678428508976947 0.0 0.0 0.0 0.0 0.0 0.0
 0.0 0.0 0.6228776079940527 0.1678428508976947 0.0 0.0 0.0 0.0
1.725885 0.0 0.0 0.0 0.0 0.6401687793768719 0.06438600027810858 0.0 0.0
 0.0 0.0 0.0 0.0 0.0 0.0 0.6401687793768719 0.06438600027810858
 0.6401687793768719 0.06438600027810858 0.0 0.0 0.0 0.0 0.0 0.0
 0.0 0.0 0.6401687793768719 0.06438600027810858 0.0 0.0 0.0 0.0
1.740884 0.0 0.0 0.0 0.0 0.6404472975260491 -0.04023025904964444 0.0 0.0
 0.0 0.0 0.0 0.0 0.0 0.0 0.6404472975260491 -0.04023025904964444
 0.6404472975260491 -0.04023025904964444 0.0 0.0 0.0 0.0 0.0 0.0
 0.0 0.0 0.6404472975260491 -0.04023025904964444 0.0 0.0 0.0 0.0
1.755883 0.0 0.0 0.0 0.0 0.6237947733556803 -0.14323550714608171 0.0 0.0
 0.0 0.0 0.0 0.0 0.0 0.0 0.6237947733556803 -0.14323550714608171
 0.6237947733556803 -0.14323550714608171 0.0 0.0 0.0 0.0 0.0 0.0
 0.0 0.0 0.6237947733556803 -0.14323550714608171 0.0 0.0 0.0 0.0
1.770882 0.0 0.0 0.0 0.0 0.5907396110131441 -0.24191631192985857 0.0 0.0
 0.0 0.0 0.0 0.0 0.0 0.0 0.5907396110131441 -0.24191631192985857
 0.5907396110131441 -0.24191631192985857 0.0 0.0 0.0 0.0 0.0 0.0
 0.0 0.0 0.5907396110131441 -0.24191631192985857 0.0 0.0 0.0 0.0
1.785881 0.0 0.0 0.0 0.0 0.5422407384676013 -0.33368758106320345 0.0 0.0
 0.0 0.0 0.0 0.0 0.0 0.0 0.5422407384676013 -0.33368758106320345
 0.5422407384676013 -0.33368758106320345 0.0 0.0 0.0 0.0 0.0 0.0
 0.0 0.0 0.5422407384676013 -0.33368758106320345 0.0 0.0 0.0 0.0
1.80088 0.0 0.0 0.0 0.0 0.4796600580244847 -0.41616015824350977 0.0 0.0
 0.0 0.0 0.0 0.0 0.0 0.0 0.4796600580244847 -0.41616015824350977
 0.4796600580244847 -0.41616015824350977 0.0 0.0 0.0 0.0 0.0 0.0
 0.0 0.0 0.4796600580244847 -0.41616015824350977 0.0 0.0 0.0 0.0
1.815879 0.0 0.0 0.0 0.0 0.4047244015209079 -0.48720289947366285 0.0 0.0
 0.0 0.0 0.0 0.0 0.0 0.0 0.4047244015209079 -0.48720289947366285
 0.4047244015209079 -0.48720289947366285 0.0 0.0 0.0 0.0 0.0 0.0
 0.0 0.0 0.4047244015209079 -0.48720289947366285 0.0 0.0 0.0 0.0
1.830878 0.0 0.0 0.0 0.0 0.3194780478209963 -0.5449976194740606 0.0 0.0
 0.0 0.0 0.0 0.0 0.0 0.0 0.3194780478209963 -0.5449976194740606
 0.3194780478209963 -0.5449976194740606 0.0 0.0 0.0 0.0 0.0 0.0
 0.0 0.0 0.3194780478209963 -0.5449976194740606 0.0 0.0 0.0 0.0
1.845877 0.0 0.0 0.0 0.0 0.22622710382580127 -0.5880854946628589 0.0 0.0
 0.0 0.0 0.0 0.0 0.0 0.0 0.22622710382580127 -0.5880854946628589
 0.22622710382580127 -0.5880854946628589 0.0 0.0 0.0 0.0 0.0 0.0
 0.0 0.0 0.22622710382580127 -0.5880854946628589 0.0 0.0 0.0 0.0
1.860876 0.0 0.0 0.0 0.0 0.12747725826354936 -0.6154037416853813 0.0 0.0
 0.0 0.0 0.0 0.0 0.0 0.0 0.12747725826354936 -0.6154037416853813
 0.12747725826354936 -0.6154037416853813 0.0 0.0 0.0 0.0 0.0 0.0
 0.0 0.0 0.12747725826354936 -0.6154037416853813 0.0 0.0 0.0 0.0
1.875875 0.0 0.0 0.0 0.0 0.025866584725164815 -0.626311653005376 0.0 0.0
 0.0 0.0 0.0 0.0 0.0 0.0 0.025866584725164815 -0.626311653005376
 0.025866584725164815 -0.626311653005376 0.0 0.0 0.0 0.0 0.0 0.0
 0.0 0.0 0.025866584725164815 -0.626311653005376 0.0 0.0 0.0 0.0
1.890874 0.0 0.0 0.0 0.0 -0.07590480744784904 -0.6206053565085539 0.0 0.0
 0.0 0.0 0.0 0.0 0.0 0.0 -0.07590480744784904 -0.6206053565085539
 -0.07590480744784904 -0.6206053565085539 0.0 0.0 0.0 0.0 0.0 0.0
 0.0 0.0 -0.07590480744784904 -0.6206053565085539 0.0 0.0 0.0 0.0
1.905873 0.0 0.0 0.0 0.0 -0.17514640172653242 -0.5985209667715861 0.0 0.0
 0.0 0.0 0.0 0.0 0.0 0.0 -0.17514640172653242 -0.5985209667715861
 -0.17514640172653242 -0.5985209667715861 0.0 0.0 0.0 0.0 0.0 0.0
 0.0 0.0 -0.17514640172653242 -0.5985209667715861 0.0 0.0 0.0 0.0
1.920872 0.0 0.0 0.0 0.0 -0.2692482853899917 -0.5607261036124298 0.0 0.0
 0.0 0.0 0.0 0.0 0.0 0.0 -0.2692482853899917 -0.5607261036124298
 -0.2692482853899917 -0.5607261036124298 0.0 0.0 0.0 0.0 0.0 0.0
 0.0 0.0 -0.2692482853899917 -0.5607261036124298 0.0 0.0 0.0 0.0
1.935871 0.0 0.0 0.0 0.0 -0.3557496717740132 -0.5083000606031306 0.0 0.0
 0.0 0.0 0.0 0.0 0.0 0.0 -0.3557496717740132 -0.5083000606031306
 -0.3557496717740132 -0.5083000606031306 0.0 0.0 0.0 0.0 0.0 0.0
 0.0 0.0 -0.3557496717740132 -0.5083000606031306 0.0 0.0 0.0 0.0
1.95087 0.0 0.0 0.0 0.0 -0.4324031376637255 -0.44270320430095556 0.0 0.0
 0.0 0.0 0.0 0.0 0.0 0.0 -0.4324031376637255 -0.44270320430095556
 -0.4324031376637255 -0.44270320430095556 0.0 0.0 0.0 0.0 0.0 0.0
 0.0 0.0 -0.4324031376637255 -0.44270320430095556 0.0 0.0 0.0 0.0
1.965869 0.0 0.0 0.0 0.0 -0.4972329017989285 -0.36573646622119105 0.0 0.0
 0.0 0.0 0.0 0.0 0.0 0.0 -0.4972329017989285 -0.36573646622119105
 -0.4972329017989285 -0.36573646622119105 0.0 0.0 0.0 0.0 0.0 0.0
 0.0 0.0 -0.4972329017989285 -0.36573646622119105 0.0 0.0 0.0 0.0
1.980868 0.0 0.0 0.0 0.0 -0.5485856360929366 -0.27949204670062805 0.0 0.0
 0.0 0.0 0.0 0.0 0.0 0.0 -0.5485856360929366 -0.27949204670062805
 -0.5485856360929366 -0.27949204670062805 0.0 0.0 0.0 0.0 0.0 0.0
 0.0 0.0 -0.5485856360929366 -0.27949204670062805 0.0 0.0 0.0 0.0
1.995867 0.0 0.0 0.0 0.0 -0.5851725057694598 -0.18629667612197703 0.0 0.0
 0.0 0.0 0.0 0.0 0.0 0.0 -0.5851725057694598 -0.18629667612197703
 -0.5851725057694598 -0.18629667612197703 0.0 0.0 0.0 0.0 0.0 0.0
 0.0 0.0 -0.5851725057694598 -0.18629667612197703 0.0 0.0 0.0 0.0
2.010866 0.0 0.0 0.0 0.0 -0.6061013726076223 -0.08864896866928715 0.0 0.0
 0.0 0.0 0.0 0.0 0.0 0.0 -0.6061013726076223 -0.08864896866928715
 -0.6061013726076223 -0.08864896866928715 0.0 0.0 0.0 0.0 0.0 0.0
 0.0 0.0 -0.6061013726076223 -0.08864896866928715 0.0 0.0 0.0 0.0
2.025865 0.0 0.0 0.0 0.0 -0.610898360411317 0.010847447960759204 0.0 0.0
 0.0 0.0 0.0 0.0 0.0 0.0 -0.610898360411317 0.010847447960759204
 -0.610898360411317 0.010847447960759204 0.0 0.0 0.0 0.0 0.0 0.0
 0.0 0.0 -0.610898360411317 0.010847447960759204 0.0 0.0 0.0 0.0
2.040864 0.0 0.0 0.0 0.0 -0.599518266564557 0.10955324036310492 0.0 0.0
 0.0 0.0 0.0 0.0 0.0 0.0 -0.599518266564557 0.10955324036310492
 -0.599518266564557 0.10955324036310492 0.0 0.0 0.0 0.0 0.0 0.0
 0.0 0.0 -0.599518266564557 0.10955324036310492 0.0 0.0 0.0 0.0
2.055863 0.0 0.0 0.0 0.0 -0.5723436004909357 0.20486327276136265 0.0 0.0
 0.0 0.0 0.0 0.0 0.0 0.0 -0.5723436004909357 0.20486327276136265
 -0.5723436004909357 0.20486327276136265 0.0 0.0 0.0 0.0 0.0 0.0
 0.0 0.0 -0.5723436004909357 0.20486327276136265 0.0 0.0 0.0 0.0
2.070862 0.0 0.0 0.0 0.0 -0.5301723311088966 0.29427525731857945 0.0 0.0
 0.0 0.0 0.0 0.0 0.0 0.0 -0.5301723311088966 0.29427525731857945
 -0.5301723311088966 0.29427525731857945 0.0 0.0 0.0 0.0 0.0 0.0
 0.0 0.0 -0.5301723311088966 0.29427525731857945 0.0 0.0 0.0 0.0
2.085861 0.0 0.0 0.0 0.0 -0.47419472299635496 0.37545534509858286 0.0 0.0
 0.0 0.0 0.0 0.0 0.0 0.0 -0.47419472299635496 0.37545534509858286
 -0.47419472299635496 0.37545534509858286 0.0 0.0 0.0 0.0 0.0 0.0
 0.0 0.0 -0.47419472299635496 0.37545534509858286 0.0 0.0 0.0 0.0
2.10086 0.0 0.0 0.0 0.0 -0.4059599271143666 0.44629894104920464 0.0 0.0
 0.0 0.0 0.0 0.0 0.0 0.0 -0.4059599271143666 0.44629894104920464
 -0.4059599271143666 0.44629894104920464 0.0 0.0 0.0 0.0 0.0 0.0
 0.0 0.0 -0.4059599271143666 0.44629894104920464 0.0 0.0 0.0 0.0
2.115859 0.0 0.0 0.0 0.0 -0.32733325909700595 0.504985160933686 0.0 0.0
 0.0 0.0 0.0 0.0 0.0 0.0 -0.32733325909700595 0.504985160933686
 -0.32733325909700595 0.504985160933686 0.0 0.0 0.0 0.0 0.0 0.0
 0.0 0.0 -0.32733325909700595 0.504985160933686 0.0 0.0 0.0 0.0
2.130858 0.0 0.0 0.0 0.0 -0.24044533933764947 0.55002352378244 0.0 0.0
 0.0 0.0 0.0 0.0 0.0 0.0 -0.24044533933764947 0.55002352378244
 -0.24044533933764947 0.55002352378244 0.0 0.0 0.0 0.0 0.0 0.0
 0.0 0.0 -0.24044533933764947 0.55002352378244 0.0 0.0 0.0 0.0
2.145857 0.0 0.0 0.0 0.0 -0.147634478152175 0.5802916853398457 0.0 0.0
 0.0 0.0 0.0 0.0 0.0 0.0 -0.147634478152175 0.5802916853398457
 -0.147634478152175 0.5802916853398457 0.0 0.0 0.0 0.0 0.0 0.0
 0.0 0.0 -0.147634478152175 0.5802916853398457 0.0 0.0 0.0 0.0
2.160856 0.0 0.0 0.0 0.0 -0.05138386081790837 0.5950632603717945 0.0 0.0
 0.0 0.0 0.0 0.0 0.0 0.0 -0.05138386081790837 0.5950632603717945
 -0.05138386081790837 0.5950632603717945 0.0 0.0 0.0 0.0 0.0 0.0
 0.0 0.0 -0.05138386081790837 0.5950632603717945 0.0 0.0 0.0 0.0
2.175855 0.0 0.0 0.0 0.0 0.04574478306924274 0.5940250480350777 0.0 0.0
 0.0 0.0 0.0 0.0 0.0 0.0 0.04574478306924274 0.5940250480350777
 0.04574478306924274 0.5940250480350777 0.0 0.0 0.0 0.0 0.0 0.0
 0.0 0.0 0.04574478306924274 0.5940250480350777 0.0 0.0 0.0 0.0
2.190854 0.0 0.0 0.0 0.0 0.14117925692654537 0.5772832576454879 0.0 0.0
 0.0 0.0 0.0 0.0 0.0 0.0 0.14117925692654537 0.5772832576454879
 0.14117925692654537 0.5772832576454879 0.0 0.0 0.0 0.0 0.0 0.0
 0.0 0.0 0.14117925692654537 0.5772832576454879 0.0 0.0 0.0 0.0
2.205853 0.0 0.0 0.0 0.0 0.23240491476609268 0.5453586245642866 0.0 0.0
 0.0 0.0 0.0 0.0 0.0 0.0 0.23240491476609268 0.5453586245642866
 0.23240491476609268 0.5453586245642866 0.0 0.0 0.0 0.0 0.0 0.0
 0.0 0.0 0.23240491476609268 0.5453586245642866 0.0 0.0 0.0 0.0
2.220852 0.0 0.0 0.0 0.0 0.3170308230066363 0.49917059979218037 0.0 0.0
 0.0 0.0 0.0 0.0 0.0 0.0 0.3170308230066363 0.49917059979218037
 0.3170308230066363 0.49917059979218037 0.0 0.0 0.0 0.0 0.0 0.0
 0.0 0.0 0.3170308230066363 0.49917059979218037 0.0 0.0 0.0 0.0
2.235851 0.0 0.0 0.0 0.0 0.3928523282730059 0.4400110844535362 0.0 0.0
 0.0 0.0 0.0 0.0 0.0 0.0 0.3928523282730059 0.4400110844535362
 0.3928523282730059 0.4400110844535362 0.0 0.0 0.0 0.0 0.0 0.0
 0.0 0.0 0.3928523282730059 0.4400110844535362 0.0 0.0 0.0 0.0
2.25085 0.0 0.0 0.0 0.0 0.4579083963223847 0.36950845411177535 0.0 0.0
 0.0 0.0 0.0 0.0 0.0 0.0 0.4579083963223847 0.36950845411177535
 0.4579083963223847 0.36950845411177535 0.0 0.0 0.0 0.0 0.0 0.0
 0.0 0.0 0.4579083963223847 0.36950845411177535 0.0 0.0 0.0 0.0
2.265849 0.0 0.0 0.0 0.0 0.5105322332744204 0.28958287062141075 0.0 0.0
 0.0 0.0 0.0 0.0 0.0 0.0 0.5105322332744204 0.28958287062141075
 0.5105322332744204 0.28958287062141075 0.0 0.0 0.0 0.0 0.0 0.0
 0.0 0.0 0.5105322332744204 0.28958287062141075 0.0 0.0 0.0 0.0
2.280848 0.0 0.0 0.0 0.0 0.5493938849556181 0.2023941044232429 0.0 0.0
 0.0 0.0 0.0 0.0 0.0 0.0 0.5493938849556181 0.2023941044232429
 0.5493938849556181 0.2023941044232429 0.0 0.0 0.0 0.0 0.0 0.0
 0.0 0.0 0.5493938849556181 0.2023941044232429 0.0 0.0 0.0 0.0
2.295847 0.0 0.0 0.0 0.0 0.5735337283388977 0.11028328201553848 0.0 0.0
 0.0 0.0 0.0 0.0 0.0 0.0 0.5735337283388977 0.11028328201553848
 0.5735337283388977 0.11028328201553848 0.0 0.0 0.0 0.0 0.0 0.0
 0.0 0.0 0.5735337283388977 0.11028328201553848 0.0 0.0 0.0 0.0
2.310846 0.0 0.0 0.0 0.0 0.5823860148465667 0.015710126883009587 0.0 0.0
 0.0 0.0 0.0 0.0 0.0 0.0 0.5823860148465667 0.015710126883009587
 0.5823860148465667 0.015710126883009587 0.0 0.0 0.0 0.0 0.0 0.0
 0.0 0.0 0.5823860148465667 0.015710126883009587 0.0 0.0 0.0 0.0
2.325845 0.0 0.0 0.0 0.0 0.5757918920690067 -0.0788126264318513 0.0 0.0
 0.0 0.0 0.0 0.0 0.0 0.0 0.5757918920690067 -0.0788126264318513
 0.5757918920690067 -0.0788126264318513 0.0 0.0 0.0 0.0 0.0 0.0
 0.0 0.0 0.5757918920690067 -0.0788126264318513 0.0 0.0 0.0 0.0
2.340844 0.0 0.0 0.0 0.0 0.5540016110893585 -0.17078589891271995 0.0 0.0
 0.0 0.0 0.0 0.0 0.0 0.0 0.5540016110893585 -0.17078589891271995
 0.5540016110893585 -0.17078589891271995 0.0 0.0 0.0 0.0 0.0 0.0
 0.0 0.0 0.5540016110893585 -0.17078589891271995 0.0 0.0 0.0 0.0
2.355843 0.0 0.0 0.0 0.0 0.517665913621839 -0.2577902480137999 0.0 0.0
 0.0 0.0 0.0 0.0 0.0 0.0 0.517665913621839 -0.2577902480137999
 0.517665913621839 -0.2577902480137999 0.0 0.0 0.0 0.0 0.0 0.0
 0.0 0.0 0.517665913621839 -0.2577902480137999 0.0 0.0 0.0 0.0
2.370842 0.0 0.0 0.0 0.0 0.467816878961044 -0.3375494233109405 0.0 0.0
 0.0 0.0 0.0 0.0 0.0 0.0 0.467816878961044 -0.3375494233109405
 0.467816878961044 -0.3375494233109405 0.0 0.0 0.0 0.0 0.0 0.0
 0.0 0.0 0.467816878961044 -0.3375494233109405 0.0 0.0 0.0 0.0
2.385841 0.0 0.0 0.0 0.0 0.4058387877629752 -0.40798982965392905 0.0 0.0
 0.0 0.0 0.0 0.0 0.0 0.0 0.4058387877629752 -0.40798982965392905
 0.4058387877629752 -0.40798982965392905 0.0 0.0 0.0 0.0 0.0 0.0
 0.0 0.0 0.4058387877629752 -0.40798982965392905 0.0 0.0 0.0 0.0
2.40084 0.0 0.0 0.0 0.0 0.33342982066425325 -0.46729434673795484 0.0 0.0
 0.0 0.0 0.0 0.0 0.0 0.0 0.33342982066425325 -0.46729434673795484
 0.33342982066425325 -0.46729434673795484 0.0 0.0 0.0 0.0 0.0 0.0
 0.0 0.0 0.33342982066425325 -0.46729434673795484 0.0 0.0 0.0 0.0
2.415839 0.0 0.0 0.0 0.0 0.252555647880438 -0.5139491105373102 0.0 0.0
 0.0 0.0 0.0 0.0 0.0 0.0 0.252555647880438 -0.5139491105373102
 0.252555647880438 -0.5139491105373102 0.0 0.0 0.0 0.0 0.0 0.0
 0.0 0.0 0.252555647880438 -0.5139491105373102 0.0 0.0 0.0 0.0
2.430838 0.0 0.0 0.0 0.0 0.16539617502945786 -0.546782054646008 0.0 0.0
 0.0 0.0 0.0 0.0 0.0 0.0 0.16539617502945786 -0.546782054646008
 0.16539617502945786 -0.546782054646008 0.0 0.0 0.0 0.0 0.0 0.0
 0.0 0.0 0.16539617502945786 -0.546782054646008 0.0 0.0 0.0 0.0
2.445837 0.0 0.0 0.0 0.0 0.07428688511939811 -0.5649922329913847 0.0 0.0
 0.0 0.0 0.0 0.0 0.0 0.0 0.07428688511939811 -0.5649922329913847
 0.07428688511939811 -0.5649922329913847 0.0 0.0 0.0 0.0 0.0 0.0
 0.0 0.0 0.07428688511939811 -0.5649922329913847 0.0 0.0 0.0 0.0
2.460836 0.0 0.0 0.0 0.0 -0.018343647527806012 -0.5681691935826837 0.0 0.0
 0.0 0.0 0.0 0.0 0.0 0.0 -0.018343647527806012 -0.5681691935826837
 -0.018343647527806012 -0.5681691935826837 0.0 0.0 0.0 0.0 0.0 0.0
 0.0 0.0 -0.018343647527806012 -0.5681691935826837 0.0 0.0 0.0 0.0
2.475835 0.0 0.0 0.0 0.0 -0.1100384020752345 -0.5563019392559185 0.0 0.0
 0.0 0.0 0.0 0.0 0.0 0.0 -0.1100384020752345 -0.5563019392559185
 -0.1100384020752345 -0.5563019392559185 0.0 0.0 0.0 0.0 0.0 0.0
 0.0 0.0 -0.1100384020752345 -0.5563019392559185 0.0 0.0 0.0 0.0
2.490834 0.0 0.0 0.0 0.0 -0.19837699631383673 -0.5297772886620581 0.0 0.0
 0.0 0.0 0.0 0.0 0.0 0.0 -0.19837699631383673 -0.5297772886620581
 -0.19837699631383673 -0.5297772886620581 0.0 0.0 0.0 0.0 0.0 0.0
 0.0 0.0 -0.19837699631383673 -0.5297772886620581 0.0 0.0 0.0 0.0
2.505833 0.0 0.0 0.0 0.0 -0.28103949035025694 -0.48936773164381425 0.0 0.0
 0.0 0.0 0.0 0.0 0.0 0.0 -0.28103949035025694 -0.48936773164381425
 -0.28103949035025694 -0.48936773164381425 0.0 0.0 0.0 0.0 0.0 0.0
 0.0 0.0 -0.28103949035025694 -0.48936773164381425 0.0 0.0 0.0 0.0
2.520832 0.0 0.0 0.0 0.0 -0.35586722911105356 -0.43620915022274037 0.0 0.0
 0.0 0.0 0.0 0.0 0.0 0.0 -0.35586722911105356 -0.43620915022274037
 -0.35586722911105356 -0.43620915022274037 0.0 0.0 0.0 0.0 0.0 0.0
 0.0 0.0 -0.35586722911105356 -0.43620915022274037 0.0 0.0 0.0 0.0
2.535831 0.0 0.0 0.0 0.0 -0.4209191301704825 -0.3717690423743985 0.0 0.0
 0.0 0.0 0.0 0.0 0.0 0.0 -0.4209191301704825 -0.3717690423743985
 -0.4209191301704825 -0.3717690423743985 0.0 0.0 0.0 0.0 0.0 0.0
 0.0 0.0 -0.4209191301704825 -0.3717690423743985 0.0 0.0 0.0 0.0
2.55083 0.0 0.0 0.0 0.0 -0.47452195132376207 -0.297806133634456 0.0 0.0
 0.0 0.0 0.0 0.0 0.0 0.0 -0.47452195132376207 -0.297806133634456
 -0.47452195132376207 -0.297806133634456 0.0 0.0 0.0 0.0 0.0 0.0
 0.0 0.0 -0.47452195132376207 -0.297806133634456 0.0 0.0 0.0 0.0
2.565829 0.0 0.0 0.0 0.0 -0.5153132383473197 -0.21632248489254308 0.0 0.0
 0.0 0.0 0.0 0.0 0.0 0.0 -0.5153132383473197 -0.21632248489254308
 -0.5153132383473197 -0.21632248489254308 0.0 0.0 0.0 0.0 0.0 0.0
 0.0 0.0 -0.5153132383473197 -0.21632248489254308 0.0 0.0 0.0 0.0
2.580828 0.0 0.0 0.0 0.0 -0.5422758529480355 -0.1295093977115503 0.0 0.0
 0.0 0.0 0.0 0.0 0.0 0.0 -0.5422758529480355 -0.1295093977115503
 -0.5422758529480355 -0.1295093977115503 0.0 0.0 0.0 0.0 0.0 0.0
 0.0 0.0 -0.5422758529480355 -0.1295093977115503 0.0 0.0 0.0 0.0
2.595827 0.0 0.0 0.0 0.0 -0.5547632085765143 -0.03968857620450544 0.0 0.0
 0.0 0.0 0.0 0.0 0.0 0.0 -0.5547632085765143 -0.03968857620450544
 -0.5547632085765143 -0.03968857620450544 0.0 0.0 0.0 0.0 0.0 0.0
 0.0 0.0 -0.5547632085765143 -0.03968857620450544 0.0 0.0 0.0 0.0
2.610826 0.0 0.0 0.0 0.0 -0.5525145914203308 0.05074987709013105 0.0 0.0
 0.0 0.0 0.0 0.0 0.0 0.0 -0.5525145914203308 0.05074987709013105
 -0.5525145914203308 0.05074987709013105 0.0 0.0 0.0 0.0 0.0 0.0
 0.0 0.0 -0.5525145914203308 0.05074987709013105 0.0 0.0 0.0 0.0
2.625825 0.0 0.0 0.0 0.0 -0.5356602088052905 0.13941097771304015 0.0 0.0
 0.0 0.0 0.0 0.0 0.0 0.0 -0.5356602088052905 0.13941097771304015
 -0.5356602088052905 0.13941097771304015 0.0 0.0 0.0 0.0 0.0 0.0
 0.0 0.0 -0.5356602088052905 0.13941097771304015 0.0 0.0 0.0 0.0
2.640824 0.0 0.0 0.0 0.0 -0.5047158803479227 0.22395820240851855 0.0 0.0
 0.0 0.0 0.0 0.0 0.0 0.0 -0.5047158803479227 0.22395820240851855
 -0.5047158803479227 0.22395820240851855 0.0 0.0 0.0 0.0 0.0 0.0
 0.0 0.0 -0.5047158803479227 0.22395820240851855 0.0 0.0 0.0 0.0
2.655823 0.0 0.0 0.0 0.0 -0.4605675612685065 0.3021749856546851 0.0 0.0
 0.0 0.0 0.0 0.0 0.0 0.0 -0.4605675612685065 0.3021749856546851
 -0.4605675612685065 0.3021749856546851 0.0 0.0 0.0 0.0 0.0 0.0
 0.0 0.0 -0.4605675612685065 0.3021749856546851 0.0 0.0 0.0 0.0
2.670822 0.0 0.0 0.0 0.0 -0.4044461550476749 0.3720227530755149 0.0 0.0
 0.0 0.0 0.0 0.0 0.0 0.0 -0.4044461550476749 0.3720227530755149
 -0.4044461550476749 0.3720227530755149 0.0 0.0 0.0 0.0 0.0 0.0
 0.0 0.0 -0.4044461550476749 0.3720227530755149 0.0 0.0 0.0 0.0
2.685821 0.0 0.0 0.0 0.0 -0.33789332704770425 0.4316939743407973 0.0 0.0
 0.0 0.0 0.0 0.0 0.0 0.0 -0.33789332704770425 0.4316939743407973
 -0.33789332704770425 0.4316939743407973 0.0 0.0 0.0 0.0 0.0 0.0
 0.0 0.0 -0.33789332704770425 0.4316939743407973 0.0 0.0 0.0 0.0
2.70082 0.0 0.0 0.0 0.0 -0.2627192651632903 0.47965885691394783 0.0 0.0
 0.0 0.0 0.0 0.0 0.0 0.0 -0.2627192651632903 0.47965885691394783
 -0.2627192651632903 0.47965885691394783 0.0 0.0 0.0 0.0 0.0 0.0
 0.0 0.0 -0.2627192651632903 0.47965885691394783 0.0 0.0 0.0 0.0
2.715819 0.0 0.0 0.0 0.0 -0.1809535419167166 0.5147044765344272 0.0 0.0
 0.0 0.0 0.0 0.0 0.0 0.0 -0.1809535419167166 0.5147044765344272
 -0.1809535419167166 0.5147044765344272 0.0 0.0 0.0 0.0 0.0 0.0
 0.0 0.0 -0.1809535419167166 0.5147044765344272 0.0 0.0 0.0 0.0
2.730818 0.0 0.0 0.0 0.0 -0.09479040928654094 0.5359653458449303 0.0 0.0
 0.0 0.0 0.0 0.0 0.0 0.0 -0.09479040928654094 0.5359653458449303
 -0.09479040928654094 0.5359653458449303 0.0 0.0 0.0 0.0 0.0 0.0
 0.0 0.0 -0.09479040928654094 0.5359653458449303 0.0 0.0 0.0 0.0
2.745817 0.0 0.0 0.0 0.0 -0.006529998431775734 0.5429446535195365 0.0 0.0
 0.0 0.0 0.0 0.0 0.0 0.0 -0.006529998431775734 0.5429446535195365
 -0.006529998431775734 0.5429446535195365 0.0 0.0 0.0 0.0 0.0 0.0
 0.0 0.0 -0.006529998431775734 0.5429446535195365 0.0 0.0 0.0 0.0
2.760816 0.0 0.0 0.0 0.0 0.0814830022092363 0.5355256563988149 0.0 0.0
 0.0 0.0 0.0 0.0 0.0 0.0 0.0814830022092363 0.5355256563988149
 0.0814830022092363 0.5355256563988149 0.0 0.0 0.0 0.0 0.0 0.0
 0.0 0.0 0.0814830022092363 0.5355256563988149 0.0 0.0 0.0 0.0
2.775815 0.0 0.0 0.0 0.0 0.16692155769673273 0.513972969793563 0.0 0.0
 0.0 0.0 0.0 0.0 0.0 0.0 0.16692155769673273 0.513972969793563
 0.16692155769673273 0.513972969793563 0.0 0.0 0.0 0.0 0.0 0.0
 0.0 0.0 0.16692155769673273 0.513972969793563 0.0 0.0 0.0 0.0
2.790814 0.0 0.0 0.0 0.0 0.24753773764525672 0.4789237692836653 0.0 0.0
 0.0 0.0 0.0 0.0 0.0 0.0 0.24753773764525672 0.4789237692836653
 0.24753773764525672 0.4789237692836653 0.0 0.0 0.0 0.0 0.0 0.0
 0.0 0.0 0.24753773764525672 0.4789237692836653 0.0 0.0 0.0 0.0
2.805813 0.0 0.0 0.0 0.0 0.32122178674365076 0.43136918390217294 0.0 0.0
 0.0 0.0 0.0 0.0 0.0 0.0 0.32122178674365076 0.43136918390217294
 0.32122178674365076 0.43136918390217294 0.0 0.0 0.0 0.0 0.0 0.0
 0.0 0.0 0.32122178674365076 0.43136918390217294 0.0 0.0 0.0 0.0
2.820812 0.0 0.0 0.0 0.0 0.386057264410939 0.3726264185221433 0.0 0.0
 0.0 0.0 0.0 0.0 0.0 0.0 0.386057264410939 0.3726264185221433
 0.386057264410939 0.3726264185221433 0.0 0.0 0.0 0.0 0.0 0.0
 0.0 0.0 0.386057264410939 0.3726264185221433 0.0 0.0 0.0 0.0
2.835811 0.0 0.0 0.0 0.0 0.4403708143847978 0.30430238578037855 0.0 0.0
 0.0 0.0 0.0 0.0 0.0 0.0 0.4403708143847978 0.30430238578037855
 0.4403708143847978 0.30430238578037855 0.0 0.0 0.0 0.0 0.0 0.0
 0.0 0.0 0.4403708143847978 0.30430238578037855 0.0 0.0 0.0 0.0
2.85081 0.0 0.0 0.0 0.0 0.48277527367988704 0.22824984864205788 0.0 0.0
 0.0 0.0 0.0 0.0 0.0 0.0 0.48277527367988704 0.22824984864205788
 0.48277527367988704 0.22824984864205788 0.0 0.0 0.0 0.0 0.0 0.0
 0.0 0.0 0.48277527367988704 0.22824984864205788 0.0 0.0 0.0 0.0
2.865809 0.0 0.0 0.0 0.0 0.512205012409488 0.14651726800020723 0.0 0.0
 0.0 0.0 0.0 0.0 0.0 0.0 0.512205012409488 0.14651726800020723
 0.512205012409488 0.14651726800020723 0.0 0.0 0.0 0.0 0.0 0.0
 0.0 0.0 0.512205012409488 0.14651726800020723 0.0 0.0 0.0 0.0
2.880808 0.0 0.0 0.0 0.0 0.5279426064701465 0.06129371053456205 0.0 0.0
 0.0 0.0 0.0 0.0 0.0 0.0 0.5279426064701465 0.06129371053456205
 0.5279426064701465 0.06129371053456205 0.0 0.0 0.0 0.0 0.0 0.0
 0.0 0.0 0.5279426064701465 0.06129371053456205 0.0 0.0 0.0 0.0
2.895807 0.0 0.0 0.0 0.0 0.5296361783529426 -0.025149703675310622 0.0 0.0
 0.0 0.0 0.0 0.0 0.0 0.0 0.5296361783529426 -0.025149703675310622
 0.5296361783529426 -0.025149703675310622 0.0 0.0 0.0 0.0 0.0 0.0
 0.0 0.0 0.5296361783529426 -0.025149703675310622 0.0 0.0 0.0 0.0
2.910806 0.0 0.0 0.0 0.0 0.517306991097312 -0.11052024969184794 0.0 0.0
 0.0 0.0 0.0 0.0 0.0 0.0 0.517306991097312 -0.11052024969184794
 0.517306991097312 -0.11052024969184794 0.0 0.0 0.0 0.0 0.0 0.0
 0.0 0.0 0.517306991097312 -0.11052024969184794 0.0 0.0 0.0 0.0
2.925805 0.0 0.0 0.0 0.0 0.4913471399692523 -0.1925643354576102 0.0 0.0
 0.0 0.0 0.0 0.0 0.0 0.0 0.4913471399692523 -0.1925643354576102
 0.4913471399692523 -0.1925643354576102 0.0 0.0 0.0 0.0 0.0 0.0
 0.0 0.0 0.4913471399692523 -0.1925643354576102 0.0 0.0 0.0 0.0
2.940804 0.0 0.0 0.0 0.0 0.452507448920816 -0.2691269215716684 0.0 0.0
 0.0 0.0 0.0 0.0 0.0 0.0 0.452507448920816 -0.2691269215716684
 0.452507448920816 -0.2691269215716684 0.0 0.0 0.0 0.0 0.0 0.0
 0.0 0.0 0.452507448920816 -0.2691269215716684 0.0 0.0 0.0 0.0
2.955803 0.0 0.0 0.0 0.0 0.40187593732292054 -0.33820805822434313 0.0 0.0
 0.0 0.0 0.0 0.0 0.0 0.0 0.40187593732292054 -0.33820805822434313
 0.40187593732292054 -0.33820805822434313 0.0 0.0 0.0 0.0 0.0 0.0
 0.0 0.0 0.40187593732292054 -0.33820805822434313 0.0 0.0 0.0 0.0
2.970802 0.0 0.0 0.0 0.0 0.34084747004760724 -0.398015057854677 0.0 0.0
 0.0 0.0 0.0 0.0 0.0 0.0 0.34084747004760724 -0.398015057854677
 0.34084747004760724 -0.398015057854677 0.0 0.0 0.0 0.0 0.0 0.0
 0.0 0.0 0.34084747004760724 -0.398015057854677 0.0 0.0 0.0 0.0
2.985801 0.0 0.0 0.0 0.0 0.27108543421627024 -0.4470089443103272 0.0 0.0
 0.0 0.0 0.0 0.0 0.0 0.0 0.27108543421627024 -0.4470089443103272
 0.27108543421627024 -0.4470089443103272 0.0 0.0 0.0 0.0 0.0 0.0
 0.0 0.0 0.27108543421627024 -0.4470089443103272 0.0 0.0 0.0 0.0
3.0008 0.0 0.0 0.0 0.0 0.19447649282143908 -0.4839439768697041 0.0 0.0
 0.0 0.0 0.0 0.0 0.0 0.0 0.19447649282143908 -0.4839439768697041
 0.19447649282143908 -0.4839439768697041 0.0 0.0 0.0 0.0 0.0 0.0
 0.0 0.0 0.19447649282143908 -0.4839439768697041 0.0 0.0 0.0 0.0
3.015799 0.0 0.0 0.0 0.0 0.11307964361127848 -0.5078992361037251 0.0 0.0
 0.0 0.0 0.0 0.0 0.0 0.0 0.11307964361127848 -0.5078992361037251
 0.11307964361127848 -0.5078992361037251 0.0 0.0 0.0 0.0 0.0 0.0
 0.0 0.0 0.11307964361127848 -0.5078992361037251 0.0 0.0 0.0 0.0
3.030798 0.0 0.0 0.0 0.0 0.029070956519458357 -0.5183014730836117 0.0 0.0
 0.0 0.0 0.0 0.0 0.0 0.0 0.029070956519458357 -0.5183014730836117
 0.029070956519458357 -0.5183014730836117 0.0 0.0 0.0 0.0 0.0 0.0
 0.0 0.0 0.029070956519458357 -0.5183014730836117 0.0 0.0 0.0 0.0
3.045797 0.0 0.0 0.0 0.0 -0.05531452914767598 -0.514938658092756 0.0 0.0
 0.0 0.0 0.0 0.0 0.0 0.0 -0.05531452914767598 -0.514938658092756
 -0.05531452914767598 -0.514938658092756 0.0 0.0 0.0 0.0 0.0 0.0
 0.0 0.0 -0.05531452914767598 -0.514938658092756 0.0 0.0 0.0 0.0
3.060796 0.0 0.0 0.0 0.0 -0.13784219827493394 -0.4979639134820006 0.0 0.0
 0.0 0.0 0.0 0.0 0.0 0.0 -0.13784219827493394 -0.4979639134820006
 -0.13784219827493394 -0.4979639134820006 0.0 0.0 0.0 0.0 0.0 0.0
 0.0 0.0 -0.13784219827493394 -0.4979639134820006 0.0 0.0 0.0 0.0
3.075795 0.0 0.0 0.0 0.0 -0.21633696775343303 -0.4678897709875441 0.0 0.0
 0.0 0.0 0.0 0.0 0.0 0.0 -0.21633696775343303 -0.4678897709875441
 -0.21633696775343303 -0.4678897709875441 0.0 0.0 0.0 0.0 0.0 0.0
 0.0 0.0 -0.21633696775343303 -0.4678897709875441 0.0 0.0 0.0 0.0
3.090794 0.0 0.0 0.0 0.0 -0.28874054683800743 -0.4255729499190285 0.0 0.0
 0.0 0.0 0.0 0.0 0.0 0.0 -0.28874054683800743 -0.4255729499190285
 -0.28874054683800743 -0.4255729499190285 0.0 0.0 0.0 0.0 0.0 0.0
 0.0 0.0 -0.28874054683800743 -0.4255729499190285 0.0 0.0 0.0 0.0
3.105793 0.0 0.0 0.0 0.0 -0.353165344345651 -0.37219010235122707 0.0 0.0
 0.0 0.0 0.0 0.0 0.0 0.0 -0.353165344345651 -0.37219010235122707
 -0.353165344345651 -0.37219010235122707 0.0 0.0 0.0 0.0 0.0 0.0
 0.0 0.0 -0.353165344345651 -0.37219010235122707 0.0 0.0 0.0 0.0
3.120792 0.0 0.0 0.0 0.0 -0.4079436125503994 -0.30920520824453573 0.0 0.0
 0.0 0.0 0.0 0.0 0.0 0.0 -0.4079436125503994 -0.30920520824453573
 -0.4079436125503994 -0.30920520824453573 0.0 0.0 0.0 0.0 0.0 0.0
 0.0 0.0 -0.4079436125503994 -0.30920520824453573 0.0 0.0 0.0 0.0
3.135791 0.0 0.0 0.0 0.0 -0.4516705500307133 -0.2383295210768252 0.0 0.0
 0.0 0.0 0.0 0.0 0.0 0.0 -0.4516705500307133 -0.2383295210768252
 -0.4516705500307133 -0.2383295210768252 0.0 0.0 0.0 0.0 0.0 0.0
 0.0 0.0 -0.4516705500307133 -0.2383295210768252 0.0 0.0 0.0 0.0
3.15079 0.0 0.0 0.0 0.0 -0.48324025130251835 -0.16147515742571816 0.0 0.0
 0.0 0.0 0.0 0.0 0.0 0.0 -0.48324025130251835 -0.16147515742571816
 -0.48324025130251835 -0.16147515742571816 0.0 0.0 0.0 0.0 0.0 0.0
 0.0 0.0 -0.48324025130251835 -0.16147515742571816 0.0 0.0 0.0 0.0
3.165789 0.0 0.0 0.0 0.0 -0.5018735852974592 -0.08070358701064531 0.0 0.0
 0.0 0.0 0.0 0.0 0.0 0.0 -0.5018735852974592 -0.08070358701064531
 -0.5018735852974592 -0.08070358701064531 0.0 0.0 0.0 0.0 0.0 0.0
 0.0 0.0 -0.5018735852974592 -0.08070358701064531 0.0 0.0 0.0 0.0
3.180788 0.0 0.0 0.0 0.0 -0.5071373023576073 0.0018295911876646223 0.0 0.0
 0.0 0.0 0.0 0.0 0.0 0.0 -0.5071373023576073 0.0018295911876646223
 -0.5071373023576073 0.0018295911876646223 0.0 0.0 0.0 0.0 0.0 0.0
 0.0 0.0 -0.5071373023576073 0.0018295911876646223 0.0 0.0 0.0 0.0
3.195787 0.0 0.0 0.0 0.0 -0.49895390455622024 0.08393210922512565 0.0 0.0
 0.0 0.0 0.0 0.0 0.0 0.0 -0.49895390455622024 0.08393210922512565
 -0.49895390455622024 0.08393210922512565 0.0 0.0 0.0 0.0 0.0 0.0
 0.0 0.0 -0.49895390455622024 0.08393210922512565 0.0 0.0 0.0 0.0
3.210786 0.0 0.0 0.0 0.0 -0.4776020605241222 0.1634331969991267 0.0 0.0
 0.0 0.0 0.0 0.0 0.0 0.0 -0.4776020605241222 0.1634331969991267
 -0.4776020605241222 0.1634331969991267 0.0 0.0 0.0 0.0 0.0 0.0
 0.0 0.0 -0.4776020605241222 0.1634331969991267 0.0 0.0 0.0 0.0
3.225785 0.0 0.0 0.0 0.0 -0.44370759699882106 0.23824091393244512 0.0 0.0
 0.0 0.0 0.0 0.0 0.0 0.0 -0.44370759699882106 0.23824091393244512
 -0.44370759699882106 0.23824091393244512 0.0 0.0 0.0 0.0 0.0 0.0
 0.0 0.0 -0.44370759699882106 0.23824091393244512 0.0 0.0 0.0 0.0
3.240784 0.0 0.0 0.0 0.0 -0.39822534836110274 0.30639713300620386 0.0 0.0
 0.0 0.0 0.0 0.0 0.0 0.0 -0.39822534836110274 0.30639713300620386
 -0.39822534836110274 0.30639713300620386 0.0 0.0 0.0 0.0 0.0 0.0
 0.0 0.0 -0.39822534836110274 0.30639713300620386 0.0 0.0 0.0 0.0
3.255783 0.0 0.0 0.0 0.0 -0.34241238590644635 0.3661287335701983 0.0 0.0
 0.0 0.0 0.0 0.0 0.0 0.0 -0.34241238590644635 0.3661287335701983
 -0.34241238590644635 0.3661287335701983 0.0 0.0 0.0 0.0 0.0 0.0
 0.0 0.0 -0.34241238590644635 0.3661287335701983 0.0 0.0 0.0 0.0
3.270782 0.0 0.0 0.0 0.0 -0.2777933741967876 0.41589366617608203 0.0 0.0
 0.0 0.0 0.0 0.0 0.0 0.0 -0.2777933741967876 0.41589366617608203
 -0.2777933741967876 0.41589366617608203 0.0 0.0 0.0 0.0 0.0 0.0
 0.0 0.0 -0.2777933741967876 0.41589366617608203 0.0 0.0 0.0 0.0
3.285781 0.0 0.0 0.0 0.0 -0.2061190066549286 0.45442069435910415 0.0 0.0
 0.0 0.0 0.0 0.0 0.0 0.0 -0.2061190066549286 0.45442069435910415
 -0.2061190066549286 0.45442069435910415 0.0 0.0 0.0 0.0 0.0 0.0
 0.0 0.0 -0.2061190066549286 0.45442069435910415 0.0 0.0 0.0 0.0
3.30078 0.0 0.0 0.0 0.0 -0.12931865127735337 0.48074179093550007 0.0 0.0
 0.0 0.0 0.0 0.0 0.0 0.0 -0.12931865127735337 0.48074179093550007
 -0.12931865127735337 0.48074179093550007 0.0 0.0 0.0 0.0 0.0 0.0
 0.0 0.0 -0.12931865127735337 0.48074179093550007 0.0 0.0 0.0 0.0
3.315779 0.0 0.0 0.0 0.0 -0.04944848534386626 0.49421636528084706 0.0 0.0
 0.0 0.0 0.0 0.0 0.0 0.0 -0.04944848534386626 0.49421636528084706
 -0.04944848534386626 0.49421636528084706 0.0 0.0 0.0 0.0 0.0 0.0
 0.0 0.0 -0.04944848534386626 0.49421636528084706 0.0 0.0 0.0 0.0
3.330778 0.0 0.0 0.0 0.0 0.03136348848064242 0.49454671783299764 0.0 0.0
 0.0 0.0 0.0 0.0 0.0 0.0 0.03136348848064242 0.49454671783299764
 0.03136348848064242 0.49454671783299764 0.0 0.0 0.0 0.0 0.0 0.0
 0.0 0.0 0.03136348848064242 0.49454671783299764 0.0 0.0 0.0 0.0
3.345777 0.0 0.0 0.0 0.0 0.11097407607291918 0.48178435281696425 0.0 0.0
 0.0 0.0 0.0 0.0 0.0 0.0 0.11097407607291918 0.48178435281696425
 0.11097407607291918 0.48178435281696425 0.0 0.0 0.0 0.0 0.0 0.0
 0.0 0.0 0.11097407607291918 0.48178435281696425 0.0 0.0 0.0 0.0
3.360776 0.0 0.0 0.0 0.0 0.18728167022224596 0.45632702364369626 0.0 0.0
 0.0 0.0 0.0 0.0 0.0 0.0 0.18728167022224596 0.45632702364369626
 0.18728167022224596 0.45632702364369626 0.0 0.0 0.0 0.0 0.0 0.0
 0.0 0.0 0.18728167022224596 0.45632702364369626 0.0 0.0 0.0 0.0
3.375775 0.0 0.0 0.0 0.0 0.2582816708384312 0.4189066311140307 0.0 0.0
 0.0 0.0 0.0 0.0 0.0 0.0 0.2582816708384312 0.4189066311140307
 0.2582816708384312 0.4189066311140307 0.0 0.0 0.0 0.0 0.0 0.0
 0.0 0.0 0.2582816708384312 0.4189066311140307 0.0 0.0 0.0 0.0
3.390774 0.0 0.0 0.0 0.0 0.3221190870915721 0.37056833595677835 0.0 0.0
 0.0 0.0 0.0 0.0 0.0 0.0 0.3221190870915721 0.37056833595677835
 0.3221190870915721 0.37056833595677835 0.0 0.0 0.0 0.0 0.0 0.0
 0.0 0.0 0.3221190870915721 0.37056833595677835 0.0 0.0 0.0 0.0
3.405773 0.0 0.0 0.0 0.0 0.3771369426971336 0.31264147798199104 0.0 0.0
 0.0 0.0 0.0 0.0 0.0 0.0 0.3771369426971336 0.31264147798199104
 0.3771369426971336 0.31264147798199104 0.0 0.0 0.0 0.0 0.0 0.0
 0.0 0.0 0.3771369426971336 0.31264147798199104 0.0 0.0 0.0 0.0
3.420772 0.0 0.0 0.0 0.0 0.4219192227793876 0.2467031081826601 0.0 0.0
 0.0 0.0 0.0 0.0 0.0 0.0 0.4219192227793876 0.2467031081826601
 0.4219192227793876 0.2467031081826601 0.0 0.0 0.0 0.0 0.0 0.0
 0.0 0.0 0.4219192227793876 0.2467031081826601 0.0 0.0 0.0 0.0
3.435771 0.0 0.0 0.0 0.0 0.4553272508050033 0.17453513188486255 0.0 0.0
 0.0 0.0 0.0 0.0 0.0 0.0 0.4553272508050033 0.17453513188486255
 0.4553272508050033 0.17453513188486255 0.0 0.0 0.0 0.0 0.0 0.0
 0.0 0.0 0.4553272508050033 0.17453513188486255 0.0 0.0 0.0 0.0
3.45077 0.0 0.0 0.0 0.0 0.47652856286201095 0.09807622555588619 0.0 0.0
 0.0 0.0 0.0 0.0 0.0 0.0 0.47652856286201095 0.09807622555588619
 0.47652856286201095 0.09807622555588619 0.0 0.0 0.0 0.0 0.0 0.0
 0.0 0.0 0.47652856286201095 0.09807622555588619 0.0 0.0 0.0 0.0
3.465769 0.0 0.0 0.0 0.0 0.4850175492111364 0.019369822903478138 0.0 0.0
 0.0 0.0 0.0 0.0 0.0 0.0 0.4850175492111364 0.019369822903478138
 0.4850175492111364 0.019369822903478138 0.0 0.0 0.0 0.0 0.0 0.0
 0.0 0.0 0.4850175492111364 0.019369822903478138 0.0 0.0 0.0 0.0
3.480768 0.0 0.0 0.0 0.0 0.48062735409112856 -0.059490435940249754 0.0 0.0
 0.0 0.0 0.0 0.0 0.0 0.0 0.48062735409112856 -0.059490435940249754
 0.48062735409112856 -0.059490435940249754 0.0 0.0 0.0 0.0 0.0 0.0
 0.0 0.0 0.48062735409112856 -0.059490435940249754 0.0 0.0 0.0 0.0
3.495767 0.0 0.0 0.0 0.0 0.4635327582892467 -0.13641633750075785 0.0 0.0
 0.0 0.0 0.0 0.0 0.0 0.0 0.4635327582892467 -0.13641633750075785
 0.4635327582892467 -0.13641633750075785 0.0 0.0 0.0 0.0 0.0 0.0
 0.0 0.0 0.4635327582892467 -0.13641633750075785 0.0 0.0 0.0 0.0
3.510766 0.0 0.0 0.0 0.0 0.4342440087608046 -0.20938033355006716 0.0 0.0
 0.0 0.0 0.0 0.0 0.0 0.0 0.4342440087608046 -0.20938033355006716
 0.4342440087608046 -0.20938033355006716 0.0 0.0 0.0 0.0 0.0 0.0
 0.0 0.0 0.4342440087608046 -0.20938033355006716 0.0 0.0 0.0 0.0
3.525765 0.0 0.0 0.0 0.0 0.39359179922874477 -0.2764689254951442 0.0 0.0
 0.0 0.0 0.0 0.0 0.0 0.0 0.39359179922874477 -0.2764689254951442
 0.39359179922874477 -0.2764689254951442 0.0 0.0 0.0 0.0 0.0 0.0
 0.0 0.0 0.39359179922874477 -0.2764689254951442 0.0 0.0 0.0 0.0
3.540764 0.0 0.0 0.0 0.0 0.3427038388780061 -0.33593279044315916 0.0 0.0
 0.0 0.0 0.0 0.0 0.0 0.0 0.3427038388780061 -0.33593279044315916
 0.3427038388780061 -0.33593279044315916 0.0 0.0 0.0 0.0 0.0 0.0
 0.0 0.0 0.3427038388780061 -0.33593279044315916 0.0 0.0 0.0 0.0
3.555763 0.0 0.0 0.0 0.0 0.2829736668414807 -0.38623233730002454 0.0 0.0
 0.0 0.0 0.0 0.0 0.0 0.0 0.2829736668414807 -0.38623233730002454
 0.2829736668414807 -0.38623233730002454 0.0 0.0 0.0 0.0 0.0 0.0
 0.0 0.0 0.2829736668414807 -0.38623233730002454 0.0 0.0 0.0 0.0
3.570762 0.0 0.0 0.0 0.0 0.21602257237643602 -0.4260775080210229 0.0 0.0
 0.0 0.0 0.0 0.0 0.0 0.0 0.21602257237643602 -0.4260775080210229
 0.21602257237643602 -0.4260775080210229 0.0 0.0 0.0 0.0 0.0 0.0
 0.0 0.0 0.21602257237643602 -0.4260775080210229 0.0 0.0 0.0 0.0
3.585761 0.0 0.0 0.0 0.0 0.1436556591859314 -0.454460796673651 0.0 0.0
 0.0 0.0 0.0 0.0 0.0 0.0 0.1436556591859314 -0.454460796673651
 0.1436556591859314 -0.454460796673651 0.0 0.0 0.0 0.0 0.0 0.0
 0.0 0.0 0.1436556591859314 -0.454460796673651 0.0 0.0 0.0 0.0
3.60076 0.0 0.0 0.0 0.0 0.06781324263112525 -0.47068264298965135 0.0 0.0
 0.0 0.0 0.0 0.0 0.0 0.0 0.06781324263112525 -0.47068264298965135
 0.06781324263112525 -0.47068264298965135 0.0 0.0 0.0 0.0 0.0 0.0
 0.0 0.0 0.06781324263112525 -0.47068264298965135 0.0 0.0 0.0 0.0
3.615759 0.0 0.0 0.0 0.0 -0.009481113242945087 -0.47436856259122 0.0 0.0
 0.0 0.0 0.0 0.0 0.0 0.0 -0.009481113242945087 -0.47436856259122
 -0.009481113242945087 -0.47436856259122 0.0 0.0 0.0 0.0 0.0 0.0
 0.0 0.0 -0.009481113242945087 -0.47436856259122 0.0 0.0 0.0 0.0
3.630758 0.0 0.0 0.0 0.0 -0.08617452886662885 -0.4654775975443132 0.0 0.0
 0.0 0.0 0.0 0.0 0.0 0.0 -0.08617452886662885 -0.4654775975443132
 -0.08617452886662885 -0.4654775975443132 0.0 0.0 0.0 0.0 0.0 0.0
 0.0 0.0 -0.08617452886662885 -0.4654775975443132 0.0 0.0 0.0 0.0
3.645757 0.0 0.0 0.0 0.0 -0.1602392765503523 -0.4443019023915659 0.0 0.0
 0.0 0.0 0.0 0.0 0.0 0.0 -0.1602392765503523 -0.4443019023915659
 -0.1602392765503523 -0.4443019023915659 0.0 0.0 0.0 0.0 0.0 0.0
 0.0 0.0 -0.1602392765503523 -0.4443019023915659 0.0 0.0 0.0 0.0
3.660756 0.0 0.0 0.0 0.0 -0.22972633844836823 -0.4114575161804126 0.0 0.0
 0.0 0.0 0.0 0.0 0.0 0.0 -0.22972633844836823 -0.4114575161804126
 -0.22972633844836823 -0.4114575161804126 0.0 0.0 0.0 0.0 0.0 0.0
 0.0 0.0 -0.22972633844836823 -0.4114575161804126 0.0 0.0 0.0 0.0
3.675755 0.0 0.0 0.0 0.0 -0.29281664187618783 -0.36786660398575793 0.0 0.0
 0.0 0.0 0.0 0.0 0.0 0.0 -0.29281664187618783 -0.36786660398575793
 -0.29281664187618783 -0.36786660398575793 0.0 0.0 0.0 0.0 0.0 0.0
 0.0 0.0 -0.29281664187618783 -0.36786660398575793 0.0 0.0 0.0 0.0
3.690754 0.0 0.0 0.0 0.0 -0.34786862651010586 -0.31473167587845285 0.0 0.0
 0.0 0.0 0.0 0.0 0.0 0.0 -0.34786862651010586 -0.31473167587845285
 -0.34786862651010586 -0.31473167587845285 0.0 0.0 0.0 0.0 0.0 0.0
 0.0 0.0 -0.34786862651010586 -0.31473167587845285 0.0 0.0 0.0 0.0
3.705753 0.0 0.0 0.0 0.0 -0.39346090102779024 -0.2535025013110185 0.0 0.0
 0.0 0.0 0.0 0.0 0.0 0.0 -0.39346090102779024 -0.2535025013110185
 -0.39346090102779024 -0.2535025013110185 0.0 0.0 0.0 0.0 0.0 0.0
 0.0 0.0 -0.39346090102779024 -0.2535025013110185 0.0 0.0 0.0 0.0
3.720752 0.0 0.0 0.0 0.0 -0.4284288821952186 -0.1858366269881916 0.0 0.0
 0.0 0.0 0.0 0.0 0.0 0.0 -0.4284288821952186 -0.1858366269881916
 -0.4284288821952186 -0.1858366269881916 0.0 0.0 0.0 0.0 0.0 0.0
 0.0 0.0 -0.4284288821952186 -0.1858366269881916 0.0 0.0 0.0 0.0
3.735751 0.0 0.0 0.0 0.0 -0.451894473541235 -0.11355457152099784 0.0 0.0
 0.0 0.0 0.0 0.0 0.0 0.0 -0.451894473541235 -0.11355457152099784
 -0.451894473541235 -0.11355457152099784 0.0 0.0 0.0 0.0 0.0 0.0
 0.0 0.0 -0.451894473541235 -0.11355457152099784 0.0 0.0 0.0 0.0
3.75075 0.0 0.0 0.0 0.0 -0.46328802911846856 -0.038590906267579515 0.0 0.0
 0.0 0.0 0.0 0.0 0.0 0.0 -0.46328802911846856 -0.038590906267579515
 -0.46328802911846856 -0.038590906267579515 0.0 0.0 0.0 0.0 0.0 0.0
 0.0 0.0 -0.46328802911846856 -0.038590906267579515 0.0 0.0 0.0 0.0
3.765749 0.0 0.0 0.0 0.0 -0.46236205533894154 0.037057464731589516 0.0 0.0
 0.0 0.0 0.0 0.0 0.0 0.0 -0.46236205533894154 0.037057464731589516
 -0.46236205533894154 0.037057464731589516 0.0 0.0 0.0 0.0 0.0 0.0
 0.0 0.0 -0.46236205533894154 0.037057464731589516 0.0 0.0 0.0 0.0
3.780748 0.0 0.0 0.0 0.0 -0.4491963249203954 0.11138444450543213 0.0 0.0
 0.0 0.0 0.0 0.0 0.0 0.0 -0.4491963249203954 0.11138444450543213
 -0.4491963249203954 0.11138444450543213 0.0 0.0 0.0 0.0 0.0 0.0
 0.0 0.0 -0.4491963249203954 0.11138444450543213 0.0 0.0 0.0 0.0
3.795747 0.0 0.0 0.0 0.0 -0.4241943056784176 0.182427889909734 0.0 0.0
 0.0 0.0 0.0 0.0 0.0 0.0 -0.4241943056784176 0.182427889909734
 -0.4241943056784176 0.182427889909734 0.0 0.0 0.0 0.0 0.0 0.0
 0.0 0.0 -0.4241943056784176 0.182427889909734 0.0 0.0 0.0 0.0
3.810746 0.0 0.0 0.0 0.0 -0.38807103716492025 0.24832135876340145 0.0 0.0
 0.0 0.0 0.0 0.0 0.0 0.0 -0.38807103716492025 0.24832135876340145
 -0.38807103716492025 0.24832135876340145 0.0 0.0 0.0 0.0 0.0 0.0
 0.0 0.0 -0.38807103716492025 0.24832135876340145 0.0 0.0 0.0 0.0
3.825745 0.0 0.0 0.0 0.0 -0.34183281388681774 0.30734309398486975 0.0 0.0
 0.0 0.0 0.0 0.0 0.0 0.0 -0.34183281388681774 0.30734309398486975
 -0.34183281388681774 0.30734309398486975 0.0 0.0 0.0 0.0 0.0 0.0
 0.0 0.0 -0.34183281388681774 0.30734309398486975 0.0 0.0 0.0 0.0
3.840744 0.0 0.0 0.0 0.0 -0.2867492490870687 0.3579609604840214 0.0 0.0
 0.0 0.0 0.0 0.0 0.0 0.0 -0.2867492490870687 0.3579609604840214
 -0.2867492490870687 0.3579609604840214 0.0 0.0 0.0 0.0 0.0 0.0
 0.0 0.0 -0.2867492490870687 0.3579609604840214 0.0 0.0 0.0 0.0
3.855743 0.0 0.0 0.0 0.0 -0.22431849218455868 0.3988721633341989 0.0 0.0
 0.0 0.0 0.0 0.0 0.0 0.0 -0.22431849218455868 0.3988721633341989
 -0.22431849218455868 0.3988721633341989 0.0 0.0 0.0 0.0 0.0 0.0
 0.0 0.0 -0.22431849218455868 0.3988721633341989 0.0 0.0 0.0 0.0
3.870742 0.0 0.0 0.0 0.0 -0.15622655075181677 0.4290367190224451 0.0 0.0
 0.0 0.0 0.0 0.0 0.0 0.0 -0.15622655075181677 0.4290367190224451
 -0.15622655075181677 0.4290367190224451 0.0 0.0 0.0 0.0 0.0 0.0
 0.0 0.0 -0.15622655075181677 0.4290367190224451 0.0 0.0 0.0 0.0
3.885741 0.0 0.0 0.0 0.0 -0.08430181974945822 0.4477038214296591 0.0 0.0
 0.0 0.0 0.0 0.0 0.0 0.0 -0.08430181974945822 0.4477038214296591
 -0.08430181974945822 0.4477038214296591 0.0 0.0 0.0 0.0 0.0 0.0
 0.0 0.0 -0.08430181974945822 0.4477038214296591 0.0 0.0 0.0 0.0
3.90074 0.0 0.0 0.0 0.0 -0.010466042729575617 0.454430436015322 0.0 0.0
 0.0 0.0 0.0 0.0 0.0 0.0 -0.010466042729575617 0.454430436015322
 -0.010466042729575617 0.454430436015322 0.0 0.0 0.0 0.0 0.0 0.0
 0.0 0.0 -0.010466042729575617 0.454430436015322 0.0 0.0 0.0 0.0
3.915739 0.0 0.0 0.0 0.0 0.06331698123106408 0.44909166430255454 0.0 0.0
 0.0 0.0 0.0 0.0 0.0 0.0 0.06331698123106408 0.44909166430255454
 0.06331698123106408 0.44909166430255454 0.0 0.0 0.0 0.0 0.0 0.0
 0.0 0.0 0.06331698123106408 0.44909166430255454 0.0 0.0 0.0 0.0
3.930738 0.0 0.0 0.0 0.0 0.13509357721537887 0.4318826405845935 0.0 0.0
 0.0 0.0 0.0 0.0 0.0 0.0 0.13509357721537887 0.4318826405845935
 0.13509357721537887 0.4318826405845935 0.0 0.0 0.0 0.0 0.0 0.0
 0.0 0.0 0.13509357721537887 0.4318826405845935 0.0 0.0 0.0 0.0
3.945737 0.0 0.0 0.0 0.0 0.20297187565309757 0.4033119479378251 0.0 0.0
 0.0 0.0 0.0 0.0 0.0 0.0 0.20297187565309757 0.4033119479378251
 0.20297187565309757 0.4033119479378251 0.0 0.0 0.0 0.0 0.0 0.0
 0.0 0.0 0.20297187565309757 0.4033119479378251 0.0 0.0 0.0 0.0
3.960736 0.0 0.0 0.0 0.0 0.26517162916692644 0.3641867651477328 0.0 0.0
 0.0 0.0 0.0 0.0 0.0 0.0 0.26517162916692644 0.3641867651477328
 0.26517162916692644 0.3641867651477328 0.0 0.0 0.0 0.0 0.0 0.0
 0.0 0.0 0.26517162916692644 0.3641867651477328 0.0 0.0 0.0 0.0
3.975735 0.0 0.0 0.0 0.0 0.32007085456802625 0.3155901740939735 0.0 0.0
 0.0 0.0 0.0 0.0 0.0 0.0 0.32007085456802625 0.3155901740939735
 0.32007085456802625 0.3155901740939735 0.0 0.0 0.0 0.0 0.0 0.0
 0.0 0.0 0.32007085456802625 0.3155901740939735 0.0 0.0 0.0 0.0
3.990734 0.0 0.0 0.0 0.0 0.3662480792670835 0.25885126276058934 0.0 0.0
 0.0 0.0 0.0 0.0 0.0 0.0 0.3662480792670835 0.25885126276058934
 0.3662480792670835 0.25885126276058934 0.0 0.0 0.0 0.0 0.0 0.0
 0.0 0.0 0.3662480792670835 0.25885126276058934 0.0 0.0 0.0 0.0
4.005733 0.0 0.0 0.0 0.0 0.40251909305936345 0.19550884694952048 0.0 0.0
 0.0 0.0 0.0 0.0 0.0 0.0 0.40251909305936345 0.19550884694952048
 0.40251909305936345 0.19550884694952048 0.0 0.0 0.0 0.0 0.0 0.0
 0.0 0.0 0.40251909305936345 0.19550884694952048 0.0 0.0 0.0 0.0
4.020732 0.0 0.0 0.0 0.0 0.42796725649163303 0.1272697990839477 0.0 0.0
 0.0 0.0 0.0 0.0 0.0 0.0 0.42796725649163303 0.1272697990839477
 0.42796725649163303 0.1272697990839477 0.0 0.0 0.0 0.0 0.0 0.0
 0.0 0.0 0.42796725649163303 0.1272697990839477 0.0 0.0 0.0 0.0
4.035731 0.0 0.0 0.0 0.0 0.44196659172509706 0.055963110916137676 0.0 0.0
 0.0 0.0 0.0 0.0 0.0 0.0 0.44196659172509706 0.055963110916137676
 0.44196659172509706 0.055963110916137676 0.0 0.0 0.0 0.0 0.0 0.0
 0.0 0.0 0.44196659172509706 0.055963110916137676 0.0 0.0 0.0 0.0
4.05073 0.0 0.0 0.0 0.0 0.4441970762418728 -0.016509075044202397 0.0 0.0
 0.0 0.0 0.0 0.0 0.0 0.0 0.4441970762418728 -0.016509075044202397
 0.4441970762418728 -0.016509075044202397 0.0 0.0 0.0 0.0 0.0 0.0
 0.0 0.0 0.4441970762418728 -0.016509075044202397 0.0 0.0 0.0 0.0
4.065729 0.0 0.0 0.0 0.0 0.4346517686719776 -0.08822215571722085 0.0 0.0
 0.0 0.0 0.0 0.0 0.0 0.0 0.4346517686719776 -0.08822215571722085
 0.4346517686719776 -0.08822215571722085 0.0 0.0 0.0 0.0 0.0 0.0
 0.0 0.0 0.4346517686719776 -0.08822215571722085 0.0 0.0 0.0 0.0
4.080728 0.0 0.0 0.0 0.0 0.4136356138506814 -0.15728012973465563 0.0 0.0
 0.0 0.0 0.0 0.0 0.0 0.0 0.4136356138506814 -0.15728012973465563
 0.4136356138506814 -0.15728012973465563 0.0 0.0 0.0 0.0 0.0 0.0
 0.0 0.0 0.4136356138506814 -0.15728012973465563 0.0 0.0 0.0 0.0
4.095727 0.0 0.0 0.0 0.0 0.3817559951488817 -0.22186567833069354 0.0 0.0
 0.0 0.0 0.0 0.0 0.0 0.0 0.3817559951488817 -0.22186567833069354
 0.3817559951488817 -0.22186567833069354 0.0 0.0 0.0 0.0 0.0 0.0
 0.0 0.0 0.3817559951488817 -0.22186567833069354 0.0 0.0 0.0 0.0
4.110726 0.0 0.0 0.0 0.0 0.33990532029099074 -0.2802879432364742 0.0 0.0
 0.0 0.0 0.0 0.0 0.0 0.0 0.33990532029099074 -0.2802879432364742
 0.33990532029099074 -0.2802879432364742 0.0 0.0 0.0 0.0 0.0 0.0
 0.0 0.0 0.33990532029099074 -0.2802879432364742 0.0 0.0 0.0 0.0
4.125725 0.0 0.0 0.0 0.0 0.2892361365233113 -0.33102674669629284 0.0 0.0
 0.0 0.0 0.0 0.0 0.0 0.0 0.2892361365233113 -0.33102674669629284
 0.2892361365233113 -0.33102674669629284 0.0 0.0 0.0 0.0 0.0 0.0
 0.0 0.0 0.2892361365233113 -0.33102674669629284 0.0 0.0 0.0 0.0
4.140724 0.0 0.0 0.0 0.0 0.2311294666089889 -0.3727720983750964 0.0 0.0
 0.0 0.0 0.0 0.0 0.0 0.0 0.2311294666089889 -0.3727720983750964
 0.2311294666089889 -0.3727720983750964 0.0 0.0 0.0 0.0 0.0 0.0
 0.0 0.0 0.2311294666089889 -0.3727720983750964 0.0 0.0 0.0 0.0
4.155723 0.0 0.0 0.0 0.0 0.16715723358649734 -0.404457963726122 0.0 0.0
 0.0 0.0 0.0 0.0 0.0 0.0 0.16715723358649734 -0.404457963726122
 0.16715723358649734 -0.404457963726122 0.0 0.0 0.0 0.0 0.0 0.0
 0.0 0.0 0.16715723358649734 -0.404457963726122 0.0 0.0 0.0 0.0
4.170722 0.0 0.0 0.0 0.0 0.09903979494927412 -0.42528942476875176 0.0 0.0
 0.0 0.0 0.0 0.0 0.0 0.0 0.09903979494927412 -0.42528942476875176
 0.09903979494927412 -0.42528942476875176 0.0 0.0 0.0 0.0 0.0 0.0
 0.0 0.0 0.09903979494927412 -0.42528942476875176 0.0 0.0 0.0 0.0
4.185721 0.0 0.0 0.0 0.0 0.02859973194480128 -0.43476254293581057 0.0 0.0
 0.0 0.0 0.0 0.0 0.0 0.0 0.02859973194480128 -0.43476254293581057
 0.02859973194480128 -0.43476254293581057 0.0 0.0 0.0 0.0 0.0 0.0
 0.0 0.0 0.02859973194480128 -0.43476254293581057 0.0 0.0 0.0 0.0
4.20072 0.0 0.0 0.0 0.0 -0.04228686613838333 -0.43267642986009974 0.0 0.0
 0.0 0.0 0.0 0.0 0.0 0.0 -0.04228686613838333 -0.43267642986009974
 -0.04228686613838333 -0.43267642986009974 0.0 0.0 0.0 0.0 0.0 0.0
 0.0 0.0 -0.04228686613838333 -0.43267642986009974 0.0 0.0 0.0 0.0
4.215719 0.0 0.0 0.0 0.0 -0.11174032188706272 -0.41913724041268186 0.0 0.0
 0.0 0.0 0.0 0.0 0.0 0.0 -0.11174032188706272 -0.41913724041268186
 -0.11174032188706272 -0.41913724041268186 0.0 0.0 0.0 0.0 0.0 0.0
 0.0 0.0 -0.11174032188706272 -0.41913724041268186 0.0 0.0 0.0 0.0
4.230718 0.0 0.0 0.0 0.0 -0.17792716683432538 -0.39455401741006635 0.0 0.0
 0.0 0.0 0.0 0.0 0.0 0.0 -0.17792716683432538 -0.39455401741006635
 -0.17792716683432538 -0.39455401741006635 0.0 0.0 0.0 0.0 0.0 0.0
 0.0 0.0 -0.17792716683432538 -0.39455401741006635 0.0 0.0 0.0 0.0
4.245717 0.0 0.0 0.0 0.0 -0.2391084976412015 -0.3596265334512872 0.0 0.0
 0.0 0.0 0.0 0.0 0.0 0.0 -0.2391084976412015 -0.3596265334512872
 -0.2391084976412015 -0.3596265334512872 0.0 0.0 0.0 0.0 0.0 0.0
 0.0 0.0 -0.2391084976412015 -0.3596265334512872 0.0 0.0 0.0 0.0
4.260716 0.0 0.0 0.0 0.0 -0.2936856172051627 -0.3153254866059365 0.0 0.0
 0.0 0.0 0.0 0.0 0.0 0.0 -0.2936856172051627 -0.3153254866059365
 -0.2936856172051627 -0.3153254866059365 0.0 0.0 0.0 0.0 0.0 0.0
 0.0 0.0 -0.2936856172051627 -0.3153254866059365 0.0 0.0 0.0 0.0
4.275715 0.0 0.0 0.0 0.0 -0.34024176391597033 -0.26286560757857025 0.0 0.0
 0.0 0.0 0.0 0.0 0.0 0.0 -0.34024176391597033 -0.26286560757857025
 -0.34024176391597033 -0.26286560757857025 0.0 0.0 0.0 0.0 0.0 0.0
 0.0 0.0 -0.34024176391597033 -0.26286560757857025 0.0 0.0 0.0 0.0
4.290714 0.0 0.0 0.0 0.0 -0.3775788410345387 -0.20367242124965917 0.0 0.0
 0.0 0.0 0.0 0.0 0.0 0.0 -0.3775788410345387 -0.20367242124965917
 -0.3775788410345387 -0.20367242124965917 0.0 0.0 0.0 0.0 0.0 0.0
 0.0 0.0 -0.3775788410345387 -0.20367242124965917 0.0 0.0 0.0 0.0
4.305713 0.0 0.0 0.0 0.0 -0.4047481952628572 -0.1393435703008526 0.0 0.0
 0.0 0.0 0.0 0.0 0.0 0.0 -0.4047481952628572 -0.1393435703008526
 -0.4047481952628572 -0.1393435703008526 0.0 0.0 0.0 0.0 0.0 0.0
 0.0 0.0 -0.4047481952628572 -0.1393435703008526 0.0 0.0 0.0 0.0
4.320712 0.0 0.0 0.0 0.0 -0.42107465525170606 -0.07160574869755376 0.0 0.0
 0.0 0.0 0.0 0.0 0.0 0.0 -0.42107465525170606 -0.07160574869755376
 -0.42107465525170606 -0.07160574869755376 0.0 0.0 0.0 0.0 0.0 0.0
 0.0 0.0 -0.42107465525170606 -0.07160574869755376 0.0 0.0 0.0 0.0
4.335711 0.0 0.0 0.0 0.0 -0.42617322267209806 -0.002268404522770277 0.0 0.0
 0.0 0.0 0.0 0.0 0.0 0.0 -0.42617322267209806 -0.002268404522770277
 -0.42617322267209806 -0.002268404522770277 0.0 0.0 0.0 0.0 0.0 0.0
 0.0 0.0 -0.42617322267209806 -0.002268404522770277 0.0 0.0 0.0 0.0
4.35071 0.0 0.0 0.0 0.0 -0.41995800565438407 0.06682454780316335 0.0 0.0
 0.0 0.0 0.0 0.0 0.0 0.0 -0.41995800565438407 0.06682454780316335
 -0.41995800565438407 0.06682454780316335 0.0 0.0 0.0 0.0 0.0 0.0
 0.0 0.0 -0.41995800565438407 0.06682454780316335 0.0 0.0 0.0 0.0
4.365709 0.0 0.0 0.0 0.0 -0.4026431915900107 0.13384371852103857 0.0 0.0
 0.0 0.0 0.0 0.0 0.0 0.0 -0.4026431915900107 0.13384371852103857
 -0.4026431915900107 0.13384371852103857 0.0 0.0 0.0 0.0 0.0 0.0
 0.0 0.0 -0.4026431915900107 0.13384371852103857 0.0 0.0 0.0 0.0
4.380708 0.0 0.0 0.0 0.0 -0.3747360679666498 0.19702263628278324 0.0 0.0
 0.0 0.0 0.0 0.0 0.0 0.0 -0.3747360679666498 0.19702263628278324
 -0.3747360679666498 0.19702263628278324 0.0 0.0 0.0 0.0 0.0 0.0
 0.0 0.0 -0.3747360679666498 0.19702263628278324 0.0 0.0 0.0 0.0
4.395707 0.0 0.0 0.0 0.0 -0.33702231044442693 0.254704265606168 0.0 0.0
 0.0 0.0 0.0 0.0 0.0 0.0 -0.33702231044442693 0.254704265606168
 -0.33702231044442693 0.254704265606168 0.0 0.0 0.0 0.0 0.0 0.0
 0.0 0.0 -0.33702231044442693 0.254704265606168 0.0 0.0 0.0 0.0
4.410706 0.0 0.0 0.0 0.0 -0.29054396120992926 0.30538442418239214 0.0 0.0
 0.0 0.0 0.0 0.0 0.0 0.0 -0.29054396120992926 0.30538442418239214
 -0.29054396120992926 0.30538442418239214 0.0 0.0 0.0 0.0 0.0 0.0
 0.0 0.0 -0.29054396120992926 0.30538442418239214 0.0 0.0 0.0 0.0
4.425705 0.0 0.0 0.0 0.0 -0.23657071239751334 0.34775096354974433 0.0 0.0
 0.0 0.0 0.0 0.0 0.0 0.0 -0.23657071239751334 0.34775096354974433
 -0.23657071239751334 0.34775096354974433 0.0 0.0 0.0 0.0 0.0 0.0
 0.0 0.0 -0.23657071239751334 0.34775096354974433 0.0 0.0 0.0 0.0
4.440704 0.0 0.0 0.0 0.0 -0.17656528401869798 0.3807176937305595 0.0 0.0
 0.0 0.0 0.0 0.0 0.0 0.0 -0.17656528401869798 0.3807176937305595
 -0.17656528401869798 0.3807176937305595 0.0 0.0 0.0 0.0 0.0 0.0
 0.0 0.0 -0.17656528401869798 0.3807176937305595 0.0 0.0 0.0 0.0
4.455703 0.0 0.0 0.0 0.0 -0.11214383883897709 0.4034521760047657 0.0 0.0
 0.0 0.0 0.0 0.0 0.0 0.0 -0.11214383883897709 0.4034521760047657
 -0.11214383883897709 0.4034521760047657 0.0 0.0 0.0 0.0 0.0 0.0
 0.0 0.0 -0.11214383883897709 0.4034521760047657 0.0 0.0 0.0 0.0
4.470702 0.0 0.0 0.0 0.0 -0.04503250402824205 0.41539667414699494 0.0 0.0
 0.0 0.0 0.0 0.0 0.0 0.0 -0.04503250402824205 0.41539667414699494
 -0.04503250402824205 0.41539667414699494 0.0 0.0 0.0 0.0 0.0 0.0
 0.0 0.0 -0.04503250402824205 0.41539667414699494 0.0 0.0 0.0 0.0
4.485701 0.0 0.0 0.0 0.0 0.022978832077265865 0.4162817386893902 0.0 0.0
 0.0 0.0 0.0 0.0 0.0 0.0 0.022978832077265865 0.4162817386893902
 0.022978832077265865 0.4162817386893902 0.0 0.0 0.0 0.0 0.0 0.0
 0.0 0.0 0.022978832077265865 0.4162817386893902 0.0 0.0 0.0 0.0
4.5007 0.0 0.0 0.0 0.0 0.0900842126126956 0.40613209613367673 0.0 0.0
 0.0 0.0 0.0 0.0 0.0 0.0 0.0900842126126956 0.40613209613367673
 0.0900842126126956 0.40613209613367673 0.0 0.0 0.0 0.0 0.0 0.0
 0.0 0.0 0.0900842126126956 0.40613209613367673 0.0 0.0 0.0 0.0
4.515699 0.0 0.0 0.0 0.0 0.15450952458718334 0.3852647202416933 0.0 0.0
 0.0 0.0 0.0 0.0 0.0 0.0 0.15450952458718334 0.3852647202416933
 0.15450952458718334 0.3852647202416933 0.0 0.0 0.0 0.0 0.0 0.0
 0.0 0.0 0.15450952458718334 0.3852647202416933 0.0 0.0 0.0 0.0
4.530698 0.0 0.0 0.0 0.0 0.2145593610396999 0.3542791701163055 0.0 0.0
 0.0 0.0 0.0 0.0 0.0 0.0 0.2145593610396999 0.3542791701163055
 0.2145593610396999 0.3542791701163055 0.0 0.0 0.0 0.0 0.0 0.0
 0.0 0.0 0.2145593610396999 0.3542791701163055 0.0 0.0 0.0 0.0
4.545697 0.0 0.0 0.0 0.0 0.26866159619432234 0.31404048423733943 0.0 0.0
 0.0 0.0 0.0 0.0 0.0 0.0 0.26866159619432234 0.31404048423733943
 0.26866159619432234 0.31404048423733943 0.0 0.0 0.0 0.0 0.0 0.0
 0.0 0.0 0.26866159619432234 0.31404048423733943 0.0 0.0 0.0 0.0
4.560696 0.0 0.0 0.0 0.0 0.31540850273049675 0.26565511553922755 0.0 0.0
 0.0 0.0 0.0 0.0 0.0 0.0 0.31540850273049675 0.26565511553922755
 0.31540850273049675 0.26565511553922755 0.0 0.0 0.0 0.0 0.0 0.0
 0.0 0.0 0.31540850273049675 0.26565511553922755 0.0 0.0 0.0 0.0
4.575695 0.0 0.0 0.0 0.0 0.3535933368814174 0.21044057485640622 0.0 0.0
 0.0 0.0 0.0 0.0 0.0 0.0 0.3535933368814174 0.21044057485640622
 0.3535933368814174 0.21044057485640622 0.0 0.0 0.0 0.0 0.0 0.0
 0.0 0.0 0.3535933368814174 0.21044057485640622 0.0 0.0 0.0 0.0
4.590694 0.0 0.0 0.0 0.0 0.38224144171097096 0.14988961385122548 0.0 0.0
 0.0 0.0 0.0 0.0 0.0 0.0 0.38224144171097096 0.14988961385122548
 0.38224144171097096 0.14988961385122548 0.0 0.0 0.0 0.0 0.0 0.0
 0.0 0.0 0.38224144171097096 0.14988961385122548 0.0 0.0 0.0 0.0
4.605693 0.0 0.0 0.0 0.0 0.4006350681768493 0.08562991961833272 0.0 0.0
 0.0 0.0 0.0 0.0 0.0 0.0 0.4006350681768493 0.08562991961833272
 0.4006350681768493 0.08562991961833272 0.0 0.0 0.0 0.0 0.0 0.0
 0.0 0.0 0.4006350681768493 0.08562991961833272 0.0 0.0 0.0 0.0
4.620692 0.0 0.0 0.0 0.0 0.4083312834075185 0.019380407888885353 0.0 0.0
 0.0 0.0 0.0 0.0 0.0 0.0 0.4083312834075185 0.019380407888885353
 0.4083312834075185 0.019380407888885353 0.0 0.0 0.0 0.0 0.0 0.0
 0.0 0.0 0.4083312834075185 0.019380407888885353 0.0 0.0 0.0 0.0
4.635691 0.0 0.0 0.0 0.0 0.40517252141866983 -0.0470947127883028 0.0 0.0
 0.0 0.0 0.0 0.0 0.0 0.0 0.40517252141866983 -0.0470947127883028
 0.40517252141866983 -0.0470947127883028 0.0 0.0 0.0 0.0 0.0 0.0
 0.0 0.0 0.40517252141866983 -0.0470947127883028 0.0 0.0 0.0 0.0
4.65069 0.0 0.0 0.0 0.0 0.3912895282827247 -0.11203287947325563 0.0 0.0
 0.0 0.0 0.0 0.0 0.0 0.0 0.3912895282827247 -0.11203287947325563
 0.3912895282827247 -0.11203287947325563 0.0 0.0 0.0 0.0 0.0 0.0
 0.0 0.0 0.3912895282827247 -0.11203287947325563 0.0 0.0 0.0 0.0
4.665689 0.0 0.0 0.0 0.0 0.3670966562842948 -0.17371986812806126 0.0 0.0
 0.0 0.0 0.0 0.0 0.0 0.0 0.3670966562842948 -0.17371986812806126
 0.3670966562842948 -0.17371986812806126 0.0 0.0 0.0 0.0 0.0 0.0
 0.0 0.0 0.3670966562842948 -0.17371986812806126 0.0 0.0 0.0 0.0
4.680688 0.0 0.0 0.0 0.0 0.33327966445739515 -0.23053500585007317 0.0 0.0
 0.0 0.0 0.0 0.0 0.0 0.0 0.33327966445739515 -0.23053500585007317
 0.33327966445739515 -0.23053500585007317 0.0 0.0 0.0 0.0 0.0 0.0
 0.0 0.0 0.33327966445739515 -0.23053500585007317 0.0 0.0 0.0 0.0
4.695687 0.0 0.0 0.0 0.0 0.29077638073245554 -0.28099371061825645 0.0 0.0
 0.0 0.0 0.0 0.0 0.0 0.0 0.29077638073245554 -0.28099371061825645
 0.29077638073245554 -0.28099371061825645 0.0 0.0 0.0 0.0 0.0 0.0
 0.0 0.0 0.29077638073245554 -0.28099371061825645 0.0 0.0 0.0 0.0
4.710686 0.0 0.0 0.0 0.0 0.24075076850434782 -0.3237862429953962 0.0 0.0
 0.0 0.0 0.0 0.0 0.0 0.0 0.24075076850434782 -0.3237862429953962
 0.24075076850434782 -0.3237862429953962 0.0 0.0 0.0 0.0 0.0 0.0
 0.0 0.0 0.24075076850434782 -0.3237862429953962 0.0 0.0 0.0 0.0
4.725685 0.0 0.0 0.0 0.0 0.18456111284171406 -0.3578116593254538 0.0 0.0
 0.0 0.0 0.0 0.0 0.0 0.0 0.18456111284171406 -0.3578116593254538
 0.18456111284171406 -0.3578116593254538 0.0 0.0 0.0 0.0 0.0 0.0
 0.0 0.0 0.18456111284171406 -0.3578116593254538 0.0 0.0 0.0 0.0
4.740684 0.0 0.0 0.0 0.0 0.12372319429066317 -0.38220608738186174 0.0 0.0
 0.0 0.0 0.0 0.0 0.0 0.0 0.12372319429066317 -0.38220608738186174
 0.12372319429066317 -0.38220608738186174 0.0 0.0 0.0 0.0 0.0 0.0
 0.0 0.0 0.12372319429066317 -0.38220608738186174 0.0 0.0 0.0 0.0
4.755683 0.0 0.0 0.0 0.0 0.05986944731988689 -0.39636459956723835 0.0 0.0
 0.0 0.0 0.0 0.0 0.0 0.0 0.05986944731988689 -0.39636459956723835
 0.05986944731988689 -0.39636459956723835 0.0 0.0 0.0 0.0 0.0 0.0
 0.0 0.0 0.05986944731988689 -0.39636459956723835 0.0 0.0 0.0 0.0
4.770682 0.0 0.0 0.0 0.0 -0.005294797409878231 -0.3999561314587553 0.0 0.0
 0.0 0.0 0.0 0.0 0.0 0.0 -0.005294797409878231 -0.3999561314587553
 -0.005294797409878231 -0.3999561314587553 0.0 0.0 0.0 0.0 0.0 0.0
 0.0 0.0 -0.005294797409878231 -0.3999561314587553 0.0 0.0 0.0 0.0
4.785681 0.0 0.0 0.0 0.0 -0.0700368151832315 -0.39293108008390554 0.0 0.0
 0.0 0.0 0.0 0.0 0.0 0.0 -0.0700368151832315 -0.39293108008390554
 -0.0700368151832315 -0.39293108008390554 0.0 0.0 0.0 0.0 0.0 0.0
 0.0 0.0 -0.0700368151832315 -0.39293108008390554 0.0 0.0 0.0 0.0
4.80068 0.0 0.0 0.0 0.0 -0.13264252076719737 -0.37552141179746523 0.0 0.0
 0.0 0.0 0.0 0.0 0.0 0.0 -0.13264252076719737 -0.37552141179746523
 -0.13264252076719737 -0.37552141179746523 0.0 0.0 0.0 0.0 0.0 0.0
 0.0 0.0 -0.13264252076719737 -0.37552141179746523 0.0 0.0 0.0 0.0
4.815679 0.0 0.0 0.0 0.0 -0.1914618114109189 -0.34823330879654796 0.0 0.0
 0.0 0.0 0.0 0.0 0.0 0.0 -0.1914618114109189 -0.34823330879654796
 -0.1914618114109189 -0.34823330879654796 0.0 0.0 0.0 0.0 0.0 0.0
 0.0 0.0 -0.1914618114109189 -0.34823330879654796 0.0 0.0 0.0 0.0
4.830678 0.0 0.0 0.0 0.0 -0.2449520208492849 -0.3118325808653675 0.0 0.0
 0.0 0.0 0.0 0.0 0.0 0.0 -0.2449520208492849 -0.3118325808653675
 -0.2449520208492849 -0.3118325808653675 0.0 0.0 0.0 0.0 0.0 0.0
 0.0 0.0 -0.2449520208492849 -0.3118325808653675 0.0 0.0 0.0 0.0
4.845677 0.0 0.0 0.0 0.0 -0.2917183409801367 -0.2673232596585023 0.0 0.0
 0.0 0.0 0.0 0.0 0.0 0.0 -0.2917183409801367 -0.2673232596585023
 -0.2917183409801367 -0.2673232596585023 0.0 0.0 0.0 0.0 0.0 0.0
 0.0 0.0 -0.2917183409801367 -0.2673232596585023 0.0 0.0 0.0 0.0
4.860676 0.0 0.0 0.0 0.0 -0.33055015306974533 -0.21591997168770388 0.0 0.0
 0.0 0.0 0.0 0.0 0.0 0.0 -0.33055015306974533 -0.21591997168770388
 -0.33055015306974533 -0.21591997168770388 0.0 0.0 0.0 0.0 0.0 0.0
 0.0 0.0 -0.33055015306974533 -0.21591997168770388 0.0 0.0 0.0 0.0
4.875675 0.0 0.0 0.0 0.0 -0.3604523231997991 -0.15901484848435957 0.0 0.0
 0.0 0.0 0.0 0.0 0.0 0.0 -0.3604523231997991 -0.15901484848435957
 -0.3604523231997991 -0.15901484848435957 0.0 0.0 0.0 0.0 0.0 0.0
 0.0 0.0 -0.3604523231997991 -0.15901484848435957 0.0 0.0 0.0 0.0
4.890674 0.0 0.0 0.0 0.0 -0.3806706540948104 -0.09813987393793093 0.0 0.0
 0.0 0.0 0.0 0.0 0.0 0.0 -0.3806706540948104 -0.09813987393793093
 -0.3806706540948104 -0.09813987393793093 0.0 0.0 0.0 0.0 0.0 0.0
 0.0 0.0 -0.3806706540948104 -0.09813987393793093 0.0 0.0 0.0 0.0
4.905673 0.0 0.0 0.0 0.0 -0.3907108437184023 -0.03492568589761454 0.0 0.0
 0.0 0.0 0.0 0.0 0.0 0.0 -0.3907108437184023 -0.03492568589761454
 -0.3907108437184023 -0.03492568589761454 0.0 0.0 0.0 0.0 0.0 0.0
 0.0 0.0 -0.3907108437184023 -0.03492568589761454 0.0 0.0 0.0 0.0
4.920672 0.0 0.0 0.0 0.0 -0.3903504758200437 0.02894206122876258 0.0 0.0
 0.0 0.0 0.0 0.0 0.0 0.0 -0.3903504758200437 0.02894206122876258
 -0.3903504758200437 0.02894206122876258 0.0 0.0 0.0 0.0 0.0 0.0
 0.0 0.0 -0.3903504758200437 0.02894206122876258 0.0 0.0 0.0 0.0
4.935671 0.0 0.0 0.0 0.0 -0.379643754250622 0.09176760619767076 0.0 0.0
 0.0 0.0 0.0 0.0 0.0 0.0 -0.379643754250622 0.09176760619767076
 -0.379643754250622 0.09176760619767076 0.0 0.0 0.0 0.0 0.0 0.0
 0.0 0.0 -0.379643754250622 0.09176760619767076 0.0 0.0 0.0 0.0
4.95067 0.0 0.0 0.0 0.0 -0.35891888635149316 0.15189006751070663 0.0 0.0
 0.0 0.0 0.0 0.0 0.0 0.0 -0.35891888635149316 0.15189006751070663
 -0.35891888635149316 0.15189006751070663 0.0 0.0 0.0 0.0 0.0 0.0
 0.0 0.0 -0.35891888635149316 0.15189006751070663 0.0 0.0 0.0 0.0
4.965669 0.0 0.0 0.0 0.0 -0.328768215902522 0.2077273144010199 0.0 0.0
 0.0 0.0 0.0 0.0 0.0 0.0 -0.328768215902522 0.2077273144010199
 -0.328768215902522 0.2077273144010199 0.0 0.0 0.0 0.0 0.0 0.0
 0.0 0.0 -0.328768215902522 0.2077273144010199 0.0 0.0 0.0 0.0
4.980668 0.0 0.0 0.0 0.0 -0.2900313978119072 0.2578175643679425 0.0 0.0
 0.0 0.0 0.0 0.0 0.0 0.0 -0.2900313978119072 0.2578175643679425
 -0.2900313978119072 0.2578175643679425 0.0 0.0 0.0 0.0 0.0 0.0
 0.0 0.0 -0.2900313978119072 0.2578175643679425 0.0 0.0 0.0 0.0
4.995667 0.0 0.0 0.0 0.0 -0.243772089880289 0.3008576145295982 0.0 0.0
 0.0 0.0 0.0 0.0 0.0 0.0 -0.243772089880289 0.3008576145295982
 -0.243772089880289 0.3008576145295982 0.0 0.0 0.0 0.0 0.0 0.0
 0.0 0.0 -0.243772089880289 0.3008576145295982 0.0 0.0 0.0 0.0
5.010666 0.0 0.0 0.0 0.0 -0.19124880675653155 0.33573670787153936 0.0 0.0
 0.0 0.0 0.0 0.0 0.0 0.0 -0.19124880675653155 0.33573670787153936
 -0.19124880675653155 0.33573670787153936 0.0 0.0 0.0 0.0 0.0 0.0
 0.0 0.0 -0.19124880675653155 0.33573670787153936 0.0 0.0 0.0 0.0
5.025665 0.0 0.0 0.0 0.0 -0.13388073318098143 0.3615651553512385 0.0 0.0
 0.0 0.0 0.0 0.0 0.0 0.0 -0.13388073318098143 0.3615651553512385
 -0.13388073318098143 0.3615651553512385 0.0 0.0 0.0 0.0 0.0 0.0
 0.0 0.0 -0.13388073318098143 0.3615651553512385 0.0 0.0 0.0 0.0
5.040664 0.0 0.0 0.0 0.0 -0.07320942383074579 0.37769697748987546 0.0 0.0
 0.0 0.0 0.0 0.0 0.0 0.0 -0.07320942383074579 0.37769697748987546
 -0.07320942383074579 0.37769697748987546 0.0 0.0 0.0 0.0 0.0 0.0
 0.0 0.0 -0.07320942383074579 0.37769697748987546 0.0 0.0 0.0 0.0
5.055663 0.0 0.0 0.0 0.0 -0.010857422182202462 0.3837459906675293 0.0 0.0
 0.0 0.0 0.0 0.0 0.0 0.0 -0.010857422182202462 0.3837459906675293
 -0.010857422182202462 0.3837459906675293 0.0 0.0 0.0 0.0 0.0 0.0
 0.0 0.0 -0.010857422182202462 0.3837459906675293 0.0 0.0 0.0 0.0
5.070662 0.0 0.0 0.0 0.0 0.05151509189184015 0.37959493947591444 0.0 0.0
 0.0 0.0 0.0 0.0 0.0 0.0 0.05151509189184015 0.37959493947591444
 0.05151509189184015 0.37959493947591444 0.0 0.0 0.0 0.0 0.0 0.0
 0.0 0.0 0.05151509189184015 0.37959493947591444 0.0 0.0 0.0 0.0
5.085661 0.0 0.0 0.0 0.0 0.11225446850104889 0.36539746244592525 0.0 0.0
 0.0 0.0 0.0 0.0 0.0 0.0 0.11225446850104889 0.36539746244592525
 0.11225446850104889 0.36539746244592525 0.0 0.0 0.0 0.0 0.0 0.0
 0.0 0.0 0.11225446850104889 0.36539746244592525 0.0 0.0 0.0 0.0
5.10066 0.0 0.0 0.0 0.0 0.16975739409812377 0.3415728692870015 0.0 0.0
 0.0 0.0 0.0 0.0 0.0 0.0 0.16975739409812377 0.3415728692870015
 0.16975739409812377 0.3415728692870015 0.0 0.0 0.0 0.0 0.0 0.0
 0.0 0.0 0.16975739409812377 0.3415728692870015 0.0 0.0 0.0 0.0
5.115659 0.0 0.0 0.0 0.0 0.2225131783018255 0.3087938983752592 0.0 0.0
 0.0 0.0 0.0 0.0 0.0 0.0 0.2225131783018255 0.3087938983752592
 0.2225131783018255 0.3087938983752592 0.0 0.0 0.0 0.0 0.0 0.0
 0.0 0.0 0.2225131783018255 0.3087938983752592 0.0 0.0 0.0 0.0
5.130658 0.0 0.0 0.0 0.0 0.2691434068058766 0.26796780855762353 0.0 0.0
 0.0 0.0 0.0 0.0 0.0 0.0 0.2691434068058766 0.26796780855762353
 0.2691434068058766 0.26796780855762353 0.0 0.0 0.0 0.0 0.0 0.0
 0.0 0.0 0.2691434068058766 0.26796780855762353 0.0 0.0 0.0 0.0
5.145657 0.0 0.0 0.0 0.0 0.3084379204820629 0.22021133451096098 0.0 0.0
 0.0 0.0 0.0 0.0 0.0 0.0 0.3084379204820629 0.22021133451096098
 0.3084379204820629 0.22021133451096098 0.0 0.0 0.0 0.0 0.0 0.0
 0.0 0.0 0.3084379204820629 0.22021133451096098 0.0 0.0 0.0 0.0
5.160656 0.0 0.0 0.0 0.0 0.3393861825177268 0.1668201953088889 0.0 0.0
 0.0 0.0 0.0 0.0 0.0 0.0 0.3393861825177268 0.1668201953088889
 0.3393861825177268 0.1668201953088889 0.0 0.0 0.0 0.0 0.0 0.0
 0.0 0.0 0.3393861825177268 0.1668201953088889 0.0 0.0 0.0 0.0
5.175655 0.0 0.0 0.0 0.0 0.36120322159707585 0.1092339873150605 0.0 0.0
 0.0 0.0 0.0 0.0 0.0 0.0 0.36120322159707585 0.1092339873150605
 0.36120322159707585 0.1092339873150605 0.0 0.0 0.0 0.0 0.0 0.0
 0.0 0.0 0.36120322159707585 0.1092339873150605 0.0 0.0 0.0 0.0
5.190654 0.0 0.0 0.0 0.0 0.37334948629703735 0.048997411370359505 0.0 0.0
 0.0 0.0 0.0 0.0 0.0 0.0 0.37334948629703735 0.048997411370359505
 0.37334948629703735 0.048997411370359505 0.0 0.0 0.0 0.0 0.0 0.0
 0.0 0.0 0.37334948629703735 0.048997411370359505 0.0 0.0 0.0 0.0
5.205653 0.0 0.0 0.0 0.0 0.375544110034574 -0.01228112258271488 0.0 0.0
 0.0 0.0 0.0 0.0 0.0 0.0 0.375544110034574 -0.01228112258271488
 0.375544110034574 -0.01228112258271488 0.0 0.0 0.0 0.0 0.0 0.0
 0.0 0.0 0.375544110034574 -0.01228112258271488 0.0 0.0 0.0 0.0
5.220652 0.0 0.0 0.0 0.0 0.36777126265222887 -0.07297240515472066 0.0 0.0
 0.0 0.0 0.0 0.0 0.0 0.0 0.36777126265222887 -0.07297240515472066
 0.36777126265222887 -0.07297240515472066 0.0 0.0 0.0 0.0 0.0 0.0
 0.0 0.0 0.36777126265222887 -0.07297240515472066 0.0 0.0 0.0 0.0
5.235651 0.0 0.0 0.0 0.0 0.3502794493256681 -0.13146970766374225 0.0 0.0
 0.0 0.0 0.0 0.0 0.0 0.0 0.3502794493256681 -0.13146970766374225
 0.3502794493256681 -0.13146970766374225 0.0 0.0 0.0 0.0 0.0 0.0
 0.0 0.0 0.3502794493256681 -0.13146970766374225 0.0 0.0 0.0 0.0
5.25065 0.0 0.0 0.0 0.0 0.32357380499640526 -0.1862312839774865 0.0 0.0
 0.0 0.0 0.0 0.0 0.0 0.0 0.32357380499640526 -0.1862312839774865
 0.32357380499640526 -0.1862312839774865 0.0 0.0 0.0 0.0 0.0 0.0
 0.0 0.0 0.32357380499640526 -0.1862312839774865 0.0 0.0 0.0 0.0
5.265649 0.0 0.0 0.0 0.0 0.28840161799288516 -0.23582097066712246 0.0 0.0
 0.0 0.0 0.0 0.0 0.0 0.0 0.28840161799288516 -0.23582097066712246
 0.28840161799288516 -0.23582097066712246 0.0 0.0 0.0 0.0 0.0 0.0
 0.0 0.0 0.28840161799288516 -0.23582097066712246 0.0 0.0 0.0 0.0
5.280648 0.0 0.0 0.0 0.0 0.24573149499708938 -0.27894581720200645 0.0 0.0
 0.0 0.0 0.0 0.0 0.0 0.0 0.24573149499708938 -0.27894581720200645
 0.24573149499708938 -0.27894581720200645 0.0 0.0 0.0 0.0 0.0 0.0
 0.0 0.0 0.24573149499708938 -0.27894581720200645 0.0 0.0 0.0 0.0
5.295647 0.0 0.0 0.0 0.0 0.19672674633993933 -0.31448976110458193 0.0 0.0
 0.0 0.0 0.0 0.0 0.0 0.0 0.19672674633993933 -0.31448976110458193
 0.19672674633993933 -0.31448976110458193 0.0 0.0 0.0 0.0 0.0 0.0
 0.0 0.0 0.19672674633993933 -0.31448976110458193 0.0 0.0 0.0 0.0
5.310646 0.0 0.0 0.0 0.0 0.14271372139416194 -0.3415424719384005 0.0 0.0
 0.0 0.0 0.0 0.0 0.0 0.0 0.14271372139416194 -0.3415424719384005
 0.14271372139416194 -0.3415424719384005 0.0 0.0 0.0 0.0 0.0 0.0
 0.0 0.0 0.14271372139416194 -0.3415424719384005 0.0 0.0 0.0 0.0
5.325645 0.0 0.0 0.0 0.0 0.08514595464781488 -0.35942261972521866 0.0 0.0
 0.0 0.0 0.0 0.0 0.0 0.0 0.08514595464781488 -0.35942261972521866
 0.08514595464781488 -0.35942261972521866 0.0 0.0 0.0 0.0 0.0 0.0
 0.0 0.0 0.08514595464781488 -0.35942261972521866 0.0 0.0 0.0 0.0
5.340644 0.0 0.0 0.0 0.0 0.025565090500949912 -0.36769497429357056 0.0 0.0
 0.0 0.0 0.0 0.0 0.0 0.0 0.025565090500949912 -0.36769497429357056
 0.025565090500949912 -0.36769497429357056 0.0 0.0 0.0 0.0 0.0 0.0
 0.0 0.0 0.025565090500949912 -0.36769497429357056 0.0 0.0 0.0 0.0
5.355643 0.0 0.0 0.0 0.0 -0.03444036381900939 -0.3661809080717927 0.0 0.0
 0.0 0.0 0.0 0.0 0.0 0.0 -0.03444036381900939 -0.3661809080717927
 -0.03444036381900939 -0.3661809080717927 0.0 0.0 0.0 0.0 0.0 0.0
 0.0 0.0 -0.03444036381900939 -0.3661809080717927 0.0 0.0 0.0 0.0
5.370642 0.0 0.0 0.0 0.0 -0.09327735462983104 -0.3549620514908491 0.0 0.0
 0.0 0.0 0.0 0.0 0.0 0.0 -0.09327735462983104 -0.3549620514908491
 -0.09327735462983104 -0.3549620514908491 0.0 0.0 0.0 0.0 0.0 0.0
 0.0 0.0 -0.09327735462983104 -0.3549620514908491 0.0 0.0 0.0 0.0
5.385641 0.0 0.0 0.0 0.0 -0.1493905411115945 -0.3343770327295879 0.0 0.0
 0.0 0.0 0.0 0.0 0.0 0.0 -0.1493905411115945 -0.3343770327295879
 -0.1493905411115945 -0.3343770327295879 0.0 0.0 0.0 0.0 0.0 0.0
 0.0 0.0 -0.1493905411115945 -0.3343770327295879 0.0 0.0 0.0 0.0
5.40064 0.0 0.0 0.0 0.0 -0.20130337743113821 -0.30501141715402535 0.0 0.0
 0.0 0.0 0.0 0.0 0.0 0.0 -0.20130337743113821 -0.30501141715402535
 -0.20130337743113821 -0.30501141715402535 0.0 0.0 0.0 0.0 0.0 0.0
 0.0 0.0 -0.20130337743113821 -0.30501141715402535 0.0 0.0 0.0 0.0
5.415639 0.0 0.0 0.0 0.0 -0.24765693341027725 -0.2676811416011328 0.0 0.0
 0.0 0.0 0.0 0.0 0.0 0.0 -0.24765693341027725 -0.2676811416011328
 -0.24765693341027725 -0.2676811416011328 0.0 0.0 0.0 0.0 0.0 0.0
 0.0 0.0 -0.24765693341027725 -0.2676811416011328 0.0 0.0 0.0 0.0
5.430638 0.0 0.0 0.0 0.0 -0.2872454339416817 -0.22340990988644394 0.0 0.0
 0.0 0.0 0.0 0.0 0.0 0.0 -0.2872454339416817 -0.22340990988644394
 -0.2872454339416817 -0.22340990988644394 0.0 0.0 0.0 0.0 0.0 0.0
 0.0 0.0 -0.2872454339416817 -0.22340990988644394 0.0 0.0 0.0 0.0
5.445637 0.0 0.0 0.0 0.0 -0.3190475885909457 -0.17340117406987404 0.0 0.0
 0.0 0.0 0.0 0.0 0.0 0.0 -0.3190475885909457 -0.17340117406987404
 -0.3190475885909457 -0.17340117406987404 0.0 0.0 0.0 0.0 0.0 0.0
 0.0 0.0 -0.3190475885909457 -0.17340117406987404 0.0 0.0 0.0 0.0
5.460636 0.0 0.0 0.0 0.0 -0.34225289829554856 -0.11900546695752974 0.0 0.0
 0.0 0.0 0.0 0.0 0.0 0.0 -0.34225289829554856 -0.11900546695752974
 -0.34225289829554856 -0.11900546695752974 0.0 0.0 0.0 0.0 0.0 0.0
 0.0 0.0 -0.34225289829554856 -0.11900546695752974 0.0 0.0 0.0 0.0
5.475635 0.0 0.0 0.0 0.0 -0.3562822626208473 -0.06168397138311342 0.0 0.0
 0.0 0.0 0.0 0.0 0.0 0.0 -0.3562822626208473 -0.06168397138311342
 -0.3562822626208473 -0.06168397138311342 0.0 0.0 0.0 0.0 0.0 0.0
 0.0 0.0 -0.3562822626208473 -0.06168397138311342 0.0 0.0 0.0 0.0
5.490634 0.0 0.0 0.0 0.0 -0.36080236495225504 -0.002969307905173345 0.0 0.0
 0.0 0.0 0.0 0.0 0.0 0.0 -0.36080236495225504 -0.002969307905173345
 -0.36080236495225504 -0.002969307905173345 0.0 0.0 0.0 0.0 0.0 0.0
 0.0 0.0 -0.36080236495225504 -0.002969307905173345 0.0 0.0 0.0 0.0
5.505633 0.0 0.0 0.0 0.0 -0.3557334801403113 0.05557540777386418 0.0 0.0
 0.0 0.0 0.0 0.0 0.0 0.0 -0.3557334801403113 0.05557540777386418
 -0.3557334801403113 0.05557540777386418 0.0 0.0 0.0 0.0 0.0 0.0
 0.0 0.0 -0.3557334801403113 0.05557540777386418 0.0 0.0 0.0 0.0
5.520632 0.0 0.0 0.0 0.0 -0.34125052498534214 0.11239814485063199 0.0 0.0
 0.0 0.0 0.0 0.0 0.0 0.0 -0.34125052498534214 0.11239814485063199
 -0.34125052498534214 0.11239814485063199 0.0 0.0 0.0 0.0 0.0 0.0
 0.0 0.0 -0.34125052498534214 0.11239814485063199 0.0 0.0 0.0 0.0
5.535631 0.0 0.0 0.0 0.0 -0.31777735185308287 0.16599906974467013 0.0 0.0
 0.0 0.0 0.0 0.0 0.0 0.0 -0.31777735185308287 0.16599906974467013
 -0.31777735185308287 0.16599906974467013 0.0 0.0 0.0 0.0 0.0 0.0
 0.0 0.0 -0.31777735185308287 0.16599906974467013 0.0 0.0 0.0 0.0
5.55063 0.0 0.0 0.0 0.0 -0.2859744648655597 0.2149701025088029 0.0 0.0
 0.0 0.0 0.0 0.0 0.0 0.0 -0.2859744648655597 0.2149701025088029
 -0.2859744648655597 0.2149701025088029 0.0 0.0 0.0 0.0 0.0 0.0
 0.0 0.0 -0.2859744648655597 0.2149701025088029 0.0 0.0 0.0 0.0
5.565629 0.0 0.0 0.0 0.0 -0.24672051176648693 0.25803187490003043 0.0 0.0
 0.0 0.0 0.0 0.0 0.0 0.0 -0.24672051176648693 0.25803187490003043
 -0.24672051176648693 0.25803187490003043 0.0 0.0 0.0 0.0 0.0 0.0
 0.0 0.0 -0.24672051176648693 0.25803187490003043 0.0 0.0 0.0 0.0
5.580628 0.0 0.0 0.0 0.0 -0.20108806813598182 0.29406712090228043 0.0 0.0
 0.0 0.0 0.0 0.0 0.0 0.0 -0.20108806813598182 0.29406712090228043
 -0.20108806813598182 0.29406712090228043 0.0 0.0 0.0 0.0 0.0 0.0
 0.0 0.0 -0.20108806813598182 0.29406712090228043 0.0 0.0 0.0 0.0
5.595627 0.0 0.0 0.0 0.0 -0.15031437983052442 0.3221496291047837 0.0 0.0
 0.0 0.0 0.0 0.0 0.0 0.0 -0.15031437983052442 0.3221496291047837
 -0.15031437983052442 0.3221496291047837 0.0 0.0 0.0 0.0 0.0 0.0
 0.0 0.0 -0.15031437983052442 0.3221496291047837 0.0 0.0 0.0 0.0
5.610626 0.0 0.0 0.0 0.0 -0.09576786045393362 0.34156800762869166 0.0 0.0
 0.0 0.0 0.0 0.0 0.0 0.0 -0.09576786045393362 0.34156800762869166
 -0.09576786045393362 0.34156800762869166 0.0 0.0 0.0 0.0 0.0 0.0
 0.0 0.0 -0.09576786045393362 0.34156800762869166 0.0 0.0 0.0 0.0
5.625625 0.0 0.0 0.0 0.0 -0.03891124992762948 0.3518436529504963 0.0 0.0
 0.0 0.0 0.0 0.0 0.0 0.0 -0.03891124992762948 0.3518436529504963
 -0.03891124992762948 0.3518436529504963 0.0 0.0 0.0 0.0 0.0 0.0
 0.0 0.0 -0.03891124992762948 0.3518436529504963 0.0 0.0 0.0 0.0
5.640624 0.0 0.0 0.0 0.0 0.01873757498416614 0.35274247018515537 0.0 0.0
 0.0 0.0 0.0 0.0 0.0 0.0 0.01873757498416614 0.35274247018515537
 0.01873757498416614 0.35274247018515537 0.0 0.0 0.0 0.0 0.0 0.0
 0.0 0.0 0.01873757498416614 0.35274247018515537 0.0 0.0 0.0 0.0
5.655623 0.0 0.0 0.0 0.0 0.07564608917412778 0.3442800599588923 0.0 0.0
 0.0 0.0 0.0 0.0 0.0 0.0 0.07564608917412778 0.3442800599588923
 0.07564608917412778 0.3442800599588923 0.0 0.0 0.0 0.0 0.0 0.0
 0.0 0.0 0.07564608917412778 0.3442800599588923 0.0 0.0 0.0 0.0
5.670622 0.0 0.0 0.0 0.0 0.13030782758749673 0.32672026143169364 0.0 0.0
 0.0 0.0 0.0 0.0 0.0 0.0 0.13030782758749673 0.32672026143169364
 0.13030782758749673 0.32672026143169364 0.0 0.0 0.0 0.0 0.0 0.0
 0.0 0.0 0.13030782758749673 0.32672026143169364 0.0 0.0 0.0 0.0
5.685621 0.0 0.0 0.0 0.0 0.18128223301437146 0.3005671176695335 0.0 0.0
 0.0 0.0 0.0 0.0 0.0 0.0 0.18128223301437146 0.3005671176695335
 0.18128223301437146 0.3005671176695335 0.0 0.0 0.0 0.0 0.0 0.0
 0.0 0.0 0.18128223301437146 0.3005671176695335 0.0 0.0 0.0 0.0
5.70062 0.0 0.0 0.0 0.0 0.22723259006659963 0.26655050372362754 0.0 0.0
 0.0 0.0 0.0 0.0 0.0 0.0 0.22723259006659963 0.26655050372362754
 0.22723259006659963 0.26655050372362754 0.0 0.0 0.0 0.0 0.0 0.0
 0.0 0.0 0.22723259006659963 0.26655050372362754 0.0 0.0 0.0 0.0
5.715619 0.0 0.0 0.0 0.0 0.26696104723041053 0.22560582484070626 0.0 0.0
 0.0 0.0 0.0 0.0 0.0 0.0 0.26696104723041053 0.22560582484070626
 0.26696104723041053 0.22560582484070626 0.0 0.0 0.0 0.0 0.0 0.0
 0.0 0.0 0.26696104723041053 0.22560582484070626 0.0 0.0 0.0 0.0
5.730618 0.0 0.0 0.0 0.0 0.2994398102300815 0.17884834780368672 0.0 0.0
 0.0 0.0 0.0 0.0 0.0 0.0 0.2994398102300815 0.17884834780368672
 0.2994398102300815 0.17884834780368672 0.0 0.0 0.0 0.0 0.0 0.0
 0.0 0.0 0.2994398102300815 0.17884834780368672 0.0 0.0 0.0 0.0
5.745617 0.0 0.0 0.0 0.0 0.3238376952587205 0.12754286840779458 0.0 0.0
 0.0 0.0 0.0 0.0 0.0 0.0 0.3238376952587205 0.12754286840779458
 0.3238376952587205 0.12754286840779458 0.0 0.0 0.0 0.0 0.0 0.0
 0.0 0.0 0.3238376952587205 0.12754286840779458 0.0 0.0 0.0 0.0
5.760616 0.0 0.0 0.0 0.0 0.3395413570383634 0.07306953886458224 0.0 0.0
 0.0 0.0 0.0 0.0 0.0 0.0 0.3395413570383634 0.07306953886458224
 0.3395413570383634 0.07306953886458224 0.0 0.0 0.0 0.0 0.0 0.0
 0.0 0.0 0.3395413570383634 0.07306953886458224 0.0 0.0 0.0 0.0
5.775615 0.0 0.0 0.0 0.0 0.3461706507250017 0.016886777370880467 0.0 0.0
 0.0 0.0 0.0 0.0 0.0 0.0 0.3461706507250017 0.016886777370880467
 0.3461706507250017 0.016886777370880467 0.0 0.0 0.0 0.0 0.0 0.0
 0.0 0.0 0.3461706507250017 0.016886777370880467 0.0 0.0 0.0 0.0
5.790614 0.0 0.0 0.0 0.0 0.3435877444824222 -0.03950774433731717 0.0 0.0
 0.0 0.0 0.0 0.0 0.0 0.0 0.3435877444824222 -0.03950774433731717
 0.3435877444824222 -0.03950774433731717 0.0 0.0 0.0 0.0 0.0 0.0
 0.0 0.0 0.3435877444824222 -0.03950774433731717 0.0 0.0 0.0 0.0
5.805613 0.0 0.0 0.0 0.0 0.33189976687092726 -0.09461699275451811 0.0 0.0
 0.0 0.0 0.0 0.0 0.0 0.0 0.33189976687092726 -0.09461699275451811
 0.33189976687092726 -0.09461699275451811 0.0 0.0 0.0 0.0 0.0 0.0
 0.0 0.0 0.33189976687092726 -0.09461699275451811 0.0 0.0 0.0 0.0
5.820612 0.0 0.0 0.0 0.0 0.3114549455569107 -0.14698428198098296 0.0 0.0
 0.0 0.0 0.0 0.0 0.0 0.0 0.3114549455569107 -0.14698428198098296
 0.3114549455569107 -0.14698428198098296 0.0 0.0 0.0 0.0 0.0 0.0
 0.0 0.0 0.3114549455569107 -0.14698428198098296 0.0 0.0 0.0 0.0
5.835611 0.0 0.0 0.0 0.0 0.28283236665557565 -0.19523174819476938 0.0 0.0
 0.0 0.0 0.0 0.0 0.0 0.0 0.28283236665557565 -0.19523174819476938
 0.28283236665557565 -0.19523174819476938 0.0 0.0 0.0 0.0 0.0 0.0
 0.0 0.0 0.28283236665557565 -0.19523174819476938 0.0 0.0 0.0 0.0
5.85061 0.0 0.0 0.0 0.0 0.2468256526869277 -0.2380965737977145 0.0 0.0
 0.0 0.0 0.0 0.0 0.0 0.0 0.2468256526869277 -0.2380965737977145
 0.2468256526869277 -0.2380965737977145 0.0 0.0 0.0 0.0 0.0 0.0
 0.0 0.0 0.2468256526869277 -0.2380965737977145 0.0 0.0 0.0 0.0
5.865609 0.0 0.0 0.0 0.0 0.20442101719880948 -0.2744640096763986 0.0 0.0
 0.0 0.0 0.0 0.0 0.0 0.0 0.20442101719880948 -0.2744640096763986
 0.20442101719880948 -0.2744640096763986 0.0 0.0 0.0 0.0 0.0 0.0
 0.0 0.0 0.20442101719880948 -0.2744640096763986 0.0 0.0 0.0 0.0
5.880608 0.0 0.0 0.0 0.0 0.1567703013795288 -0.3033963328596241 0.0 0.0
 0.0 0.0 0.0 0.0 0.0 0.0 0.1567703013795288 -0.3033963328596241
 0.1567703013795288 -0.3033963328596241 0.0 0.0 0.0 0.0 0.0 0.0
 0.0 0.0 0.1567703013795288 -0.3033963328596241 0.0 0.0 0.0 0.0
5.895607 0.0 0.0 0.0 0.0 0.10515972859335153 -0.324156988211649 0.0 0.0
 0.0 0.0 0.0 0.0 0.0 0.0 0.10515972859335153 -0.324156988211649
 0.10515972859335153 -0.324156988211649 0.0 0.0 0.0 0.0 0.0 0.0
 0.0 0.0 0.10515972859335153 -0.324156988211649 0.0 0.0 0.0 0.0
5.910606 0.0 0.0 0.0 0.0 0.050975223329074545 -0.33622929363053333 0.0 0.0
 0.0 0.0 0.0 0.0 0.0 0.0 0.050975223329074545 -0.33622929363053333
 0.050975223329074545 -0.33622929363053333 0.0 0.0 0.0 0.0 0.0 0.0
 0.0 0.0 0.050975223329074545 -0.33622929363053333 0.0 0.0 0.0 0.0
5.925605 0.0 0.0 0.0 0.0 -0.004334771296367661 -0.33932923497461054 0.0 0.0
 0.0 0.0 0.0 0.0 0.0 0.0 -0.004334771296367661 -0.33932923497461054
 -0.004334771296367661 -0.33932923497461054 0.0 0.0 0.0 0.0 0.0 0.0
 0.0 0.0 -0.004334771296367661 -0.33932923497461054 0.0 0.0 0.0 0.0
5.940604 0.0 0.0 0.0 0.0 -0.0592979808204986 -0.3334120356591995 0.0 0.0
 0.0 0.0 0.0 0.0 0.0 0.0 -0.0592979808204986 -0.3334120356591995
 -0.0592979808204986 -0.3334120356591995 0.0 0.0 0.0 0.0 0.0 0.0
 0.0 0.0 -0.0592979808204986 -0.3334120356591995 0.0 0.0 0.0 0.0
5.955603 0.0 0.0 0.0 0.0 -0.1124574590209313 -0.3186723522927771 0.0 0.0
 0.0 0.0 0.0 0.0 0.0 0.0 -0.1124574590209313 -0.3186723522927771
 -0.1124574590209313 -0.3186723522927771 0.0 0.0 0.0 0.0 0.0 0.0
 0.0 0.0 -0.1124574590209313 -0.3186723522927771 0.0 0.0 0.0 0.0
5.970602 0.0 0.0 0.0 0.0 -0.16241017902888022 -0.29553811741057345 0.0 0.0
 0.0 0.0 0.0 0.0 0.0 0.0 -0.16241017902888022 -0.29553811741057345
 -0.16241017902888022 -0.29553811741057345 0.0 0.0 0.0 0.0 0.0 0.0
 0.0 0.0 -0.16241017902888022 -0.29553811741057345 0.0 0.0 0.0 0.0
5.985601 0.0 0.0 0.0 0.0 -0.20784403454445557 -0.2646582188003208 0.0 0.0
 0.0 0.0 0.0 0.0 0.0 0.0 -0.20784403454445557 -0.2646582188003208
 -0.20784403454445557 -0.2646582188003208 0.0 0.0 0.0 0.0 0.0 0.0
 0.0 0.0 -0.20784403454445557 -0.2646582188003208 0.0 0.0 0.0 0.0
6.0006 0.0 0.0 0.0 0.0 -0.24757227609170712 -0.2268843676369563 0.0 0.0
 0.0 0.0 0.0 0.0 0.0 0.0 -0.24757227609170712 -0.2268843676369563
 -0.24757227609170712 -0.2268843676369563 0.0 0.0 0.0 0.0 0.0 0.0
 0.0 0.0 -0.24757227609170712 -0.2268843676369563 0.0 0.0 0.0 0.0
6.015599 0.0 0.0 0.0 0.0 -0.28056447929081885 -0.18324766035758594 0.0 0.0
 0.0 0.0 0.0 0.0 0.0 0.0 -0.28056447929081885 -0.18324766035758594
 -0.28056447929081885 -0.18324766035758594 0.0 0.0 0.0 0.0 0.0 0.0
 0.0 0.0 -0.28056447929081885 -0.18324766035758594 0.0 0.0 0.0 0.0
6.030598 0.0 0.0 0.0 0.0 -0.3059732378243381 -0.13493047790493778 0.0 0.0
 0.0 0.0 0.0 0.0 0.0 0.0 -0.3059732378243381 -0.13493047790493778
 -0.3059732378243381 -0.13493047790493778 0.0 0.0 0.0 0.0 0.0 0.0
 0.0 0.0 -0.3059732378243381 -0.13493047790493778 0.0 0.0 0.0 0.0
6.045597 0.0 0.0 0.0 0.0 -0.3231558904991801 -0.08323448702487508 0.0 0.0
 0.0 0.0 0.0 0.0 0.0 0.0 -0.3231558904991801 -0.08323448702487508
 -0.3231558904991801 -0.08323448702487508 0.0 0.0 0.0 0.0 0.0 0.0
 0.0 0.0 -0.3231558904991801 -0.08323448702487508 0.0 0.0 0.0 0.0
6.060596 0.0 0.0 0.0 0.0 -0.3316907263747853 -0.02954560858167477 0.0 0.0
 0.0 0.0 0.0 0.0 0.0 0.0 -0.3316907263747853 -0.02954560858167477
 -0.3316907263747853 -0.02954560858167477 0.0 0.0 0.0 0.0 0.0 0.0
 0.0 0.0 -0.3316907263747853 -0.02954560858167477 0.0 0.0 0.0 0.0
6.075595 0.0 0.0 0.0 0.0 -0.33138726069787017 0.02470310522157885 0.0 0.0
 0.0 0.0 0.0 0.0 0.0 0.0 -0.33138726069787017 0.02470310522157885
 -0.33138726069787017 0.02470310522157885 0.0 0.0 0.0 0.0 0.0 0.0
 0.0 0.0 -0.33138726069787017 0.02470310522157885 0.0 0.0 0.0 0.0
6.090594 0.0 0.0 0.0 0.0 -0.32229033335191043 0.07806969120694207 0.0 0.0
 0.0 0.0 0.0 0.0 0.0 0.0 -0.32229033335191043 0.07806969120694207
 -0.32229033335191043 0.07806969120694207 0.0 0.0 0.0 0.0 0.0 0.0
 0.0 0.0 -0.32229033335191043 0.07806969120694207 0.0 0.0 0.0 0.0
6.105593 0.0 0.0 0.0 0.0 -0.30467794643622687 0.12914157460335632 0.0 0.0
 0.0 0.0 0.0 0.0 0.0 0.0 -0.30467794643622687 0.12914157460335632
 -0.30467794643622687 0.12914157460335632 0.0 0.0 0.0 0.0 0.0 0.0
 0.0 0.0 -0.30467794643622687 0.12914157460335632 0.0 0.0 0.0 0.0
6.120592 0.0 0.0 0.0 0.0 -0.2790529240367118 0.1765729309471981 0.0 0.0
 0.0 0.0 0.0 0.0 0.0 0.0 -0.2790529240367118 0.1765729309471981
 -0.2790529240367118 0.1765729309471981 0.0 0.0 0.0 0.0 0.0 0.0
 0.0 0.0 -0.2790529240367118 0.1765729309471981 0.0 0.0 0.0 0.0
6.135591 0.0 0.0 0.0 0.0 -0.24612864081601302 0.21912012302971562 0.0 0.0
 0.0 0.0 0.0 0.0 0.0 0.0 -0.24612864081601302 0.21912012302971562
 -0.24612864081601302 0.21912012302971562 0.0 0.0 0.0 0.0 0.0 0.0
 0.0 0.0 -0.24612864081601302 0.21912012302971562 0.0 0.0 0.0 0.0
6.15059 0.0 0.0 0.0 0.0 -0.20680922240786972 0.2556742805257743 0.0 0.0
 0.0 0.0 0.0 0.0 0.0 0.0 -0.20680922240786972 0.2556742805257743
 -0.20680922240786972 0.2556742805257743 0.0 0.0 0.0 0.0 0.0 0.0
 0.0 0.0 -0.20680922240786972 0.2556742805257743 0.0 0.0 0.0 0.0
6.165589 0.0 0.0 0.0 0.0 -0.1621647656296495 0.2852901695567852 0.0 0.0
 0.0 0.0 0.0 0.0 0.0 0.0 -0.1621647656296495 0.2852901695567852
 -0.1621647656296495 0.2852901695567852 0.0 0.0 0.0 0.0 0.0 0.0
 0.0 0.0 -0.1621647656296495 0.2852901695567852 0.0 0.0 0.0 0.0
6.180588 0.0 0.0 0.0 0.0 -0.11340225642686498 0.3072106013598369 0.0 0.0
 0.0 0.0 0.0 0.0 0.0 0.0 -0.11340225642686498 0.3072106013598369
 -0.11340225642686498 0.3072106013598369 0.0 0.0 0.0 0.0 0.0 0.0
 0.0 0.0 -0.11340225642686498 0.3072106013598369 0.0 0.0 0.0 0.0
6.195587 0.0 0.0 0.0 0.0 -0.061832974849503806 0.32088575065982994 0.0 0.0
 0.0 0.0 0.0 0.0 0.0 0.0 -0.061832974849503806 0.32088575065982994
 -0.061832974849503806 0.32088575065982994 0.0 0.0 0.0 0.0 0.0 0.0
 0.0 0.0 -0.061832974849503806 0.32088575065982994 0.0 0.0 0.0 0.0
6.210586 0.0 0.0 0.0 0.0 -0.008837266350842239 0.3259868919726445 0.0 0.0
 0.0 0.0 0.0 0.0 0.0 0.0 -0.008837266350842239 0.3259868919726445
 -0.008837266350842239 0.3259868919726445 0.0 0.0 0.0 0.0 0.0 0.0
 0.0 0.0 -0.008837266350842239 0.3259868919726445 0.0 0.0 0.0 0.0
6.225585 0.0 0.0 0.0 0.0 0.04417237500413389 0.32241421218659183 0.0 0.0
 0.0 0.0 0.0 0.0 0.0 0.0 0.04417237500413389 0.32241421218659183
 0.04417237500413389 0.32241421218659183 0.0 0.0 0.0 0.0 0.0 0.0
 0.0 0.0 0.04417237500413389 0.32241421218659183 0.0 0.0 0.0 0.0
6.240584 0.0 0.0 0.0 0.0 0.0957889248963719 0.3102985163444221 0.0 0.0
 0.0 0.0 0.0 0.0 0.0 0.0 0.0957889248963719 0.3102985163444221
 0.0957889248963719 0.3102985163444221 0.0 0.0 0.0 0.0 0.0 0.0
 0.0 0.0 0.0957889248963719 0.3102985163444221 0.0 0.0 0.0 0.0
6.255583 0.0 0.0 0.0 0.0 0.14464814755618438 0.28999680633666763 0.0 0.0
 0.0 0.0 0.0 0.0 0.0 0.0 0.14464814755618438 0.28999680633666763
 0.14464814755618438 0.28999680633666763 0.0 0.0 0.0 0.0 0.0 0.0
 0.0 0.0 0.14464814755618438 0.28999680633666763 0.0 0.0 0.0 0.0
6.270582 0.0 0.0 0.0 0.0 0.18946462591938953 0.2620818748833633 0.0 0.0
 0.0 0.0 0.0 0.0 0.0 0.0 0.18946462591938953 0.2620818748833633
 0.18946462591938953 0.2620818748833633 0.0 0.0 0.0 0.0 0.0 0.0
 0.0 0.0 0.18946462591938953 0.2620818748833633 0.0 0.0 0.0 0.0
6.285581 0.0 0.0 0.0 0.0 0.22906555226590167 0.22732621540956202 0.0 0.0
 0.0 0.0 0.0 0.0 0.0 0.0 0.22906555226590167 0.22732621540956202
 0.22906555226590167 0.22732621540956202 0.0 0.0 0.0 0.0 0.0 0.0
 0.0 0.0 0.22906555226590167 0.22732621540956202 0.0 0.0 0.0 0.0
6.30058 0.0 0.0 0.0 0.0 0.262421391769409 0.18668069803029438 0.0 0.0
 0.0 0.0 0.0 0.0 0.0 0.0 0.262421391769409 0.18668069803029438
 0.262421391769409 0.18668069803029438 0.0 0.0 0.0 0.0 0.0 0.0
 0.0 0.0 0.262421391769409 0.18668069803029438 0.0 0.0 0.0 0.0
6.315579 0.0 0.0 0.0 0.0 0.2886726179808551 0.141248598917617 0.0 0.0
 0.0 0.0 0.0 0.0 0.0 0.0 0.2886726179808551 0.141248598917617
 0.2886726179808551 0.141248598917617 0.0 0.0 0.0 0.0 0.0 0.0
 0.0 0.0 0.2886726179808551 0.141248598917617 0.0 0.0 0.0 0.0
6.330578 0.0 0.0 0.0 0.0 0.30715182676557734 0.09225569124054565 0.0 0.0
 0.0 0.0 0.0 0.0 0.0 0.0 0.30715182676557734 0.09225569124054565
 0.30715182676557734 0.09225569124054565 0.0 0.0 0.0 0.0 0.0 0.0
 0.0 0.0 0.30715182676557734 0.09225569124054565 0.0 0.0 0.0 0.0
6.345577 0.0 0.0 0.0 0.0 0.3174006606779524 0.041017207504279944 0.0 0.0
 0.0 0.0 0.0 0.0 0.0 0.0 0.3174006606779524 0.041017207504279944
 0.3174006606779524 0.041017207504279944 0.0 0.0 0.0 0.0 0.0 0.0
 0.0 0.0 0.3174006606779524 0.041017207504279944 0.0 0.0 0.0 0.0
6.360576 0.0 0.0 0.0 0.0 0.3191811157862265 -0.011097437150854681 0.0 0.0
 0.0 0.0 0.0 0.0 0.0 0.0 0.3191811157862265 -0.011097437150854681
 0.3191811157862265 -0.011097437150854681 0.0 0.0 0.0 0.0 0.0 0.0
 0.0 0.0 0.3191811157862265 -0.011097437150854681 0.0 0.0 0.0 0.0
6.375575 0.0 0.0 0.0 0.0 0.3124809537793961 -0.06270121532489278 0.0 0.0
 0.0 0.0 0.0 0.0 0.0 0.0 0.3124809537793961 -0.06270121532489278
 0.3124809537793961 -0.06270121532489278 0.0 0.0 0.0 0.0 0.0 0.0
 0.0 0.0 0.3124809537793961 -0.06270121532489278 0.0 0.0 0.0 0.0
6.390574 0.0 0.0 0.0 0.0 0.2975130997522154 -0.11242637555049878 0.0 0.0
 0.0 0.0 0.0 0.0 0.0 0.0 0.2975130997522154 -0.11242637555049878
 0.2975130997522154 -0.11242637555049878 0.0 0.0 0.0 0.0 0.0 0.0
 0.0 0.0 0.2975130997522154 -0.11242637555049878 0.0 0.0 0.0 0.0
6.405573 0.0 0.0 0.0 0.0 0.27470906616496193 -0.15896066797278038 0.0 0.0
 0.0 0.0 0.0 0.0 0.0 0.0 0.27470906616496193 -0.15896066797278038
 0.27470906616496193 -0.15896066797278038 0.0 0.0 0.0 0.0 0.0 0.0
 0.0 0.0 0.27470906616496193 -0.15896066797278038 0.0 0.0 0.0 0.0
6.420572 0.0 0.0 0.0 0.0 0.24470660185300017 -0.20108194874988708 0.0 0.0
 0.0 0.0 0.0 0.0 0.0 0.0 0.24470660185300017 -0.20108194874988708
 0.24470660185300017 -0.20108194874988708 0.0 0.0 0.0 0.0 0.0 0.0
 0.0 0.0 0.24470660185300017 -0.20108194874988708 0.0 0.0 0.0 0.0
6.435571 0.0 0.0 0.0 0.0 0.2083319174212453 -0.2376902513275664 0.0 0.0
 0.0 0.0 0.0 0.0 0.0 0.0 0.2083319174212453 -0.2376902513275664
 0.2083319174212453 -0.2376902513275664 0.0 0.0 0.0 0.0 0.0 0.0
 0.0 0.0 0.2083319174212453 -0.2376902513275664 0.0 0.0 0.0 0.0
6.45057 0.0 0.0 0.0 0.0 0.16657698087855555 -0.26783648367018464 0.0 0.0
 0.0 0.0 0.0 0.0 0.0 0.0 0.16657698087855555 -0.26783648367018464
 0.16657698087855555 -0.26783648367018464 0.0 0.0 0.0 0.0 0.0 0.0
 0.0 0.0 0.16657698087855555 -0.26783648367018464 0.0 0.0 0.0 0.0
6.465569 0.0 0.0 0.0 0.0 0.12057250620432597 -0.29074700349140314 0.0 0.0
 0.0 0.0 0.0 0.0 0.0 0.0 0.12057250620432597 -0.29074700349140314
 0.12057250620432597 -0.29074700349140314 0.0 0.0 0.0 0.0 0.0 0.0
 0.0 0.0 0.12057250620432597 -0.29074700349140314 0.0 0.0 0.0 0.0
6.480568 0.0 0.0 0.0 0.0 0.0715573693303426 -0.3058434359632996 0.0 0.0
 0.0 0.0 0.0 0.0 0.0 0.0 0.0715573693303426 -0.3058434359632996
 0.0715573693303426 -0.3058434359632996 0.0 0.0 0.0 0.0 0.0 0.0
 0.0 0.0 0.0715573693303426 -0.3058434359632996 0.0 0.0 0.0 0.0
6.495567 0.0 0.0 0.0 0.0 0.020845277866820063 -0.3127572272314036 0.0 0.0
 0.0 0.0 0.0 0.0 0.0 0.0 0.020845277866820063 -0.3127572272314036
 0.020845277866820063 -0.3127572272314036 0.0 0.0 0.0 0.0 0.0 0.0
 0.0 0.0 0.020845277866820063 -0.3127572272314036 0.0 0.0 0.0 0.0
6.510566 0.0 0.0 0.0 0.0 -0.03021040955449575 -0.3113385688390931 0.0 0.0
 0.0 0.0 0.0 0.0 0.0 0.0 -0.03021040955449575 -0.3113385688390931
 -0.03021040955449575 -0.3113385688390931 0.0 0.0 0.0 0.0 0.0 0.0
 0.0 0.0 -0.03021040955449575 -0.3113385688390931 0.0 0.0 0.0 0.0
6.525565 0.0 0.0 0.0 0.0 -0.08025277296187401 -0.3016594790536657 0.0 0.0
 0.0 0.0 0.0 0.0 0.0 0.0 -0.08025277296187401 -0.3016594790536657
 -0.08025277296187401 -0.3016594790536657 0.0 0.0 0.0 0.0 0.0 0.0
 0.0 0.0 -0.08025277296187401 -0.3016594790536657 0.0 0.0 0.0 0.0
6.540564 0.0 0.0 0.0 0.0 -0.1279573680744373 -0.28401098304655265 0.0 0.0
 0.0 0.0 0.0 0.0 0.0 0.0 -0.1279573680744373 -0.28401098304655265
 -0.1279573680744373 -0.28401098304655265 0.0 0.0 0.0 0.0 0.0 0.0
 0.0 0.0 -0.1279573680744373 -0.28401098304655265 0.0 0.0 0.0 0.0
6.555563 0.0 0.0 0.0 0.0 -0.1720672542968526 -0.2588944907522383 0.0 0.0
 0.0 0.0 0.0 0.0 0.0 0.0 -0.1720672542968526 -0.2588944907522383
 -0.1720672542968526 -0.2588944907522383 0.0 0.0 0.0 0.0 0.0 0.0
 0.0 0.0 -0.1720672542968526 -0.2588944907522383 0.0 0.0 0.0 0.0
6.570562 0.0 0.0 0.0 0.0 -0.21142608794594292 -0.22700762484707393 0.0 0.0
 0.0 0.0 0.0 0.0 0.0 0.0 -0.21142608794594292 -0.22700762484707393
 -0.21142608794594292 -0.22700762484707393 0.0 0.0 0.0 0.0 0.0 0.0
 0.0 0.0 -0.21142608794594292 -0.22700762484707393 0.0 0.0 0.0 0.0
6.585561 0.0 0.0 0.0 0.0 -0.2450084100788724 -0.18922489758625735 0.0 0.0
 0.0 0.0 0.0 0.0 0.0 0.0 -0.2450084100788724 -0.18922489758625735
 -0.2450084100788724 -0.18922489758625735 0.0 0.0 0.0 0.0 0.0 0.0
 0.0 0.0 -0.2450084100788724 -0.18922489758625735 0.0 0.0 0.0 0.0
6.60056 0.0 0.0 0.0 0.0 -0.27194633628182296 -0.14657377036103889 0.0 0.0
 0.0 0.0 0.0 0.0 0.0 0.0 -0.27194633628182296 -0.14657377036103889
 -0.27194633628182296 -0.14657377036103889 0.0 0.0 0.0 0.0 0.0 0.0
 0.0 0.0 -0.27194633628182296 -0.14657377036103889 0.0 0.0 0.0 0.0
6.615559 0.0 0.0 0.0 0.0 -0.2915519544928583 -0.10020675024723295 0.0 0.0
 0.0 0.0 0.0 0.0 0.0 0.0 -0.2915519544928583 -0.10020675024723295
 -0.2915519544928583 -0.10020675024723295 0.0 0.0 0.0 0.0 0.0 0.0
 0.0 0.0 -0.2915519544928583 -0.10020675024723295 0.0 0.0 0.0 0.0
6.630558 0.0 0.0 0.0 0.0 -0.3033348536700927 -0.051370280372980144 0.0 0.0
 0.0 0.0 0.0 0.0 0.0 0.0 -0.3033348536700927 -0.051370280372980144
 -0.3033348536700927 -0.051370280372980144 0.0 0.0 0.0 0.0 0.0 0.0
 0.0 0.0 -0.3033348536700927 -0.051370280372980144 0.0 0.0 0.0 0.0
6.645557 0.0 0.0 0.0 0.0 -0.3070143377049839 -0.0013712629883774125 0.0 0.0
 0.0 0.0 0.0 0.0 0.0 0.0 -0.3070143377049839 -0.0013712629883774125
 -0.3070143377049839 -0.0013712629883774125 0.0 0.0 0.0 0.0 0.0 0.0
 0.0 0.0 -0.3070143377049839 -0.0013712629883774125 0.0 0.0 0.0 0.0
6.660556 0.0 0.0 0.0 0.0 -0.3025260218686932 0.04845788642469966 0.0 0.0
 0.0 0.0 0.0 0.0 0.0 0.0 -0.3025260218686932 0.04845788642469966
 -0.3025260218686932 0.04845788642469966 0.0 0.0 0.0 0.0 0.0 0.0
 0.0 0.0 -0.3025260218686932 0.04845788642469966 0.0 0.0 0.0 0.0
6.675555 0.0 0.0 0.0 0.0 -0.29002265942833977 0.09679472029391986 0.0 0.0
 0.0 0.0 0.0 0.0 0.0 0.0 -0.29002265942833977 0.09679472029391986
 -0.29002265942833977 0.09679472029391986 0.0 0.0 0.0 0.0 0.0 0.0
 0.0 0.0 -0.29002265942833977 0.09679472029391986 0.0 0.0 0.0 0.0
6.690554 0.0 0.0 0.0 0.0 -0.26986919985922286 0.14236183119932314 0.0 0.0
 0.0 0.0 0.0 0.0 0.0 0.0 -0.26986919985922286 0.14236183119932314
 -0.26986919985922286 0.14236183119932314 0.0 0.0 0.0 0.0 0.0 0.0
 0.0 0.0 -0.26986919985922286 0.14236183119932314 0.0 0.0 0.0 0.0
6.705553 0.0 0.0 0.0 0.0 -0.24263223321230318 0.183960585732026 0.0 0.0
 0.0 0.0 0.0 0.0 0.0 0.0 -0.24263223321230318 0.183960585732026
 -0.24263223321230318 0.183960585732026 0.0 0.0 0.0 0.0 0.0 0.0
 0.0 0.0 -0.24263223321230318 0.183960585732026 0.0 0.0 0.0 0.0
6.720552 0.0 0.0 0.0 0.0 -0.2090641236110181 0.22050262976418392 0.0 0.0
 0.0 0.0 0.0 0.0 0.0 0.0 -0.2090641236110181 0.22050262976418392
 -0.2090641236110181 0.22050262976418392 0.0 0.0 0.0 0.0 0.0 0.0
 0.0 0.0 -0.2090641236110181 0.22050262976418392 0.0 0.0 0.0 0.0
6.735551 0.0 0.0 0.0 0.0 -0.17008227462711023 0.25103833768069433 0.0 0.0
 0.0 0.0 0.0 0.0 0.0 0.0 -0.17008227462711023 0.25103833768069433
 -0.17008227462711023 0.25103833768069433 0.0 0.0 0.0 0.0 0.0 0.0
 0.0 0.0 -0.17008227462711023 0.25103833768069433 0.0 0.0 0.0 0.0
6.75055 0.0 0.0 0.0 0.0 -0.12674409674539655 0.27478146259374175 0.0 0.0
 0.0 0.0 0.0 0.0 0.0 0.0 -0.12674409674539655 0.27478146259374175
 -0.12674409674539655 0.27478146259374175 0.0 0.0 0.0 0.0 0.0 0.0
 0.0 0.0 -0.12674409674539655 0.27478146259374175 0.0 0.0 0.0 0.0
6.765549 0.0 0.0 0.0 0.0 -0.08021835893780686 0.29112934841757115 0.0 0.0
 0.0 0.0 0.0 0.0 0.0 0.0 -0.08021835893780686 0.29112934841757115
 -0.08021835893780686 0.29112934841757115 0.0 0.0 0.0 0.0 0.0 0.0
 0.0 0.0 -0.08021835893780686 0.29112934841757115 0.0 0.0 0.0 0.0
6.780548 0.0 0.0 0.0 0.0 -0.031753699622143215 0.29967818508817207 0.0 0.0
 0.0 0.0 0.0 0.0 0.0 0.0 -0.031753699622143215 0.29967818508817207
 -0.031753699622143215 0.29967818508817207 0.0 0.0 0.0 0.0 0.0 0.0
 0.0 0.0 -0.031753699622143215 0.29967818508817207 0.0 0.0 0.0 0.0
6.795547 0.0 0.0 0.0 0.0 0.0173548554210851 0.30023292190848105 0.0 0.0
 0.0 0.0 0.0 0.0 0.0 0.0 0.0173548554210851 0.30023292190848105
 0.0173548554210851 0.30023292190848105 0.0 0.0 0.0 0.0 0.0 0.0
 0.0 0.0 0.0173548554210851 0.30023292190848105 0.0 0.0 0.0 0.0
6.810546 0.0 0.0 0.0 0.0 0.06580047109498385 0.29281159738151263 0.0 0.0
 0.0 0.0 0.0 0.0 0.0 0.0 0.06580047109498385 0.29281159738151263
 0.06580047109498385 0.29281159738151263 0.0 0.0 0.0 0.0 0.0 0.0
 0.0 0.0 0.06580047109498385 0.29281159738151263 0.0 0.0 0.0 0.0
6.825545 0.0 0.0 0.0 0.0 0.11229925442790328 0.27764399311637533 0.0 0.0
 0.0 0.0 0.0 0.0 0.0 0.0 0.11229925442790328 0.27764399311637533
 0.11229925442790328 0.27764399311637533 0.0 0.0 0.0 0.0 0.0 0.0
 0.0 0.0 0.11229925442790328 0.27764399311637533 0.0 0.0 0.0 0.0
6.840544 0.0 0.0 0.0 0.0 0.15562425594984147 0.25516467047023517 0.0 0.0
 0.0 0.0 0.0 0.0 0.0 0.0 0.15562425594984147 0.25516467047023517
 0.15562425594984147 0.25516467047023517 0.0 0.0 0.0 0.0 0.0 0.0
 0.0 0.0 0.15562425594984147 0.25516467047023517 0.0 0.0 0.0 0.0
6.855543 0.0 0.0 0.0 0.0 0.19463782117309292 0.22600059750460194 0.0 0.0
 0.0 0.0 0.0 0.0 0.0 0.0 0.19463782117309292 0.22600059750460194
 0.19463782117309292 0.22600059750460194 0.0 0.0 0.0 0.0 0.0 0.0
 0.0 0.0 0.19463782117309292 0.22600059750460194 0.0 0.0 0.0 0.0
6.870542 0.0 0.0 0.0 0.0 0.22832143977363453 0.19095371664164246 0.0 0.0
 0.0 0.0 0.0 0.0 0.0 0.0 0.22832143977363453 0.19095371664164246
 0.22832143977363453 0.19095371664164246 0.0 0.0 0.0 0.0 0.0 0.0
 0.0 0.0 0.22832143977363453 0.19095371664164246 0.0 0.0 0.0 0.0
6.885541 0.0 0.0 0.0 0.0 0.2558023099397818 0.15097893633832607 0.0 0.0
 0.0 0.0 0.0 0.0 0.0 0.0 0.2558023099397818 0.15097893633832607
 0.2558023099397818 0.15097893633832607 0.0 0.0 0.0 0.0 0.0 0.0
 0.0 0.0 0.2558023099397818 0.15097893633832607 0.0 0.0 0.0 0.0
6.90054 0.0 0.0 0.0 0.0 0.2763759257229747 0.10715814966319398 0.0 0.0
 0.0 0.0 0.0 0.0 0.0 0.0 0.2763759257229747 0.10715814966319398
 0.2763759257229747 0.10715814966319398 0.0 0.0 0.0 0.0 0.0 0.0
 0.0 0.0 0.2763759257229747 0.10715814966319398 0.0 0.0 0.0 0.0
6.915539 0.0 0.0 0.0 0.0 0.2895241036114977 0.06067098574041062 0.0 0.0
 0.0 0.0 0.0 0.0 0.0 0.0 0.2895241036114977 0.06067098574041062
 0.2895241036114977 0.06067098574041062 0.0 0.0 0.0 0.0 0.0 0.0
 0.0 0.0 0.2895241036114977 0.06067098574041062 0.0 0.0 0.0 0.0
6.930538 0.0 0.0 0.0 0.0 0.29492798800101755 0.012763083948289454 0.0 0.0
 0.0 0.0 0.0 0.0 0.0 0.0 0.29492798800101755 0.012763083948289454
 0.29492798800101755 0.012763083948289454 0.0 0.0 0.0 0.0 0.0 0.0
 0.0 0.0 0.29492798800101755 0.012763083948289454 0.0 0.0 0.0 0.0
6.945537 0.0 0.0 0.0 0.0 0.29247571041905784 -0.03528725662872743 0.0 0.0
 0.0 0.0 0.0 0.0 0.0 0.0 0.29247571041905784 -0.03528725662872743
 0.29247571041905784 -0.03528725662872743 0.0 0.0 0.0 0.0 0.0 0.0
 0.0 0.0 0.29247571041905784 -0.03528725662872743 0.0 0.0 0.0 0.0
6.960536 0.0 0.0 0.0 0.0 0.2822645206368014 -0.08220316027090163 0.0 0.0
 0.0 0.0 0.0 0.0 0.0 0.0 0.2822645206368014 -0.08220316027090163
 0.2822645206368014 -0.08220316027090163 0.0 0.0 0.0 0.0 0.0 0.0
 0.0 0.0 0.2822645206368014 -0.08220316027090163 0.0 0.0 0.0 0.0
6.975535 0.0 0.0 0.0 0.0 0.2645973553348467 -0.12674308212005034 0.0 0.0
 0.0 0.0 0.0 0.0 0.0 0.0 0.2645973553348467 -0.12674308212005034
 0.2645973553348467 -0.12674308212005034 0.0 0.0 0.0 0.0 0.0 0.0
 0.0 0.0 0.2645973553348467 -0.12674308212005034 0.0 0.0 0.0 0.0
6.990534 0.0 0.0 0.0 0.0 0.23997395784499428 -0.16773364031037072 0.0 0.0
 0.0 0.0 0.0 0.0 0.0 0.0 0.23997395784499428 -0.16773364031037072
 0.23997395784499428 -0.16773364031037072 0.0 0.0 0.0 0.0 0.0 0.0
 0.0 0.0 0.23997395784499428 -0.16773364031037072 0.0 0.0 0.0 0.0
7.005533 0.0 0.0 0.0 0.0 0.20907680674043833 -0.20410050510710082 0.0 0.0
 0.0 0.0 0.0 0.0 0.0 0.0 0.20907680674043833 -0.20410050510710082
 0.20907680674043833 -0.20410050510710082 0.0 0.0 0.0 0.0 0.0 0.0
 0.0 0.0 0.20907680674043833 -0.20410050510710082 0.0 0.0 0.0 0.0
7.020532 0.0 0.0 0.0 0.0 0.1727522478754862 -0.23489653250520104 0.0 0.0
 0.0 0.0 0.0 0.0 0.0 0.0 0.1727522478754862 -0.23489653250520104
 0.1727522478754862 -0.23489653250520104 0.0 0.0 0.0 0.0 0.0 0.0
 0.0 0.0 0.1727522478754862 -0.23489653250520104 0.0 0.0 0.0 0.0
7.035531 0.0 0.0 0.0 0.0 0.13198735027966374 -0.25932640617639546 0.0 0.0
 0.0 0.0 0.0 0.0 0.0 0.0 0.13198735027966374 -0.25932640617639546
 0.13198735027966374 -0.25932640617639546 0.0 0.0 0.0 0.0 0.0 0.0
 0.0 0.0 0.13198735027966374 -0.25932640617639546 0.0 0.0 0.0 0.0
7.05053 0.0 0.0 0.0 0.0 0.08788311779217499 -0.27676714733346025 0.0 0.0
 0.0 0.0 0.0 0.0 0.0 0.0 0.08788311779217499 -0.27676714733346025
 0.08788311779217499 -0.27676714733346025 0.0 0.0 0.0 0.0 0.0 0.0
 0.0 0.0 0.08788311779217499 -0.27676714733346025 0.0 0.0 0.0 0.0
7.065529 0.0 0.0 0.0 0.0 0.041624782577991466 -0.2867839643871534 0.0 0.0
 0.0 0.0 0.0 0.0 0.0 0.0 0.041624782577991466 -0.2867839643871534
 0.041624782577991466 -0.2867839643871534 0.0 0.0 0.0 0.0 0.0 0.0
 0.0 0.0 0.041624782577991466 -0.2867839643871534 0.0 0.0 0.0 0.0
7.080528 0.0 0.0 0.0 0.0 -0.005550018738129153 -0.28914104015554304 0.0 0.0
 0.0 0.0 0.0 0.0 0.0 0.0 -0.005550018738129153 -0.28914104015554304
 -0.005550018738129153 -0.28914104015554304 0.0 0.0 0.0 0.0 0.0 0.0
 0.0 0.0 -0.005550018738129153 -0.28914104015554304 0.0 0.0 0.0 0.0
7.095527 0.0 0.0 0.0 0.0 -0.05238433255230023 -0.28380699045090974 0.0 0.0
 0.0 0.0 0.0 0.0 0.0 0.0 -0.05238433255230023 -0.28380699045090974
 -0.05238433255230023 -0.28380699045090974 0.0 0.0 0.0 0.0 0.0 0.0
 0.0 0.0 -0.05238433255230023 -0.28380699045090974 0.0 0.0 0.0 0.0
7.110526 0.0 0.0 0.0 0.0 -0.09763535546395431 -0.27095487046147543 0.0 0.0
 0.0 0.0 0.0 0.0 0.0 0.0 -0.09763535546395431 -0.27095487046147543
 -0.09763535546395431 -0.27095487046147543 0.0 0.0 0.0 0.0 0.0 0.0
 0.0 0.0 -0.09763535546395431 -0.27095487046147543 0.0 0.0 0.0 0.0
7.125525 0.0 0.0 0.0 0.0 -0.14010739069844194 -0.25095675065143874 0.0 0.0
 0.0 0.0 0.0 0.0 0.0 0.0 -0.14010739069844194 -0.25095675065143874
 -0.14010739069844194 -0.25095675065143874 0.0 0.0 0.0 0.0 0.0 0.0
 0.0 0.0 -0.14010739069844194 -0.25095675065143874 0.0 0.0 0.0 0.0
7.140524 0.0 0.0 0.0 0.0 -0.1786834204346512 -0.22437302805325393 0.0 0.0
 0.0 0.0 0.0 0.0 0.0 0.0 -0.1786834204346512 -0.22437302805325393
 -0.1786834204346512 -0.22437302805325393 0.0 0.0 0.0 0.0 0.0 0.0
 0.0 0.0 -0.1786834204346512 -0.22437302805325393 0.0 0.0 0.0 0.0
7.155523 0.0 0.0 0.0 0.0 -0.2123544609576238 -0.1919367779967747 0.0 0.0
 0.0 0.0 0.0 0.0 0.0 0.0 -0.2123544609576238 -0.1919367779967747
 -0.2123544609576238 -0.1919367779967747 0.0 0.0 0.0 0.0 0.0 0.0
 0.0 0.0 -0.2123544609576238 -0.1919367779967747 0.0 0.0 0.0 0.0
7.170522 0.0 0.0 0.0 0.0 -0.2402459297768781 -0.1545335818346212 0.0 0.0
 0.0 0.0 0.0 0.0 0.0 0.0 -0.2402459297768781 -0.1545335818346212
 -0.2402459297768781 -0.1545335818346212 0.0 0.0 0.0 0.0 0.0 0.0
 0.0 0.0 -0.2402459297768781 -0.1545335818346212 0.0 0.0 0.0 0.0
7.185521 0.0 0.0 0.0 0.0 -0.2616403362997047 -0.11317738464924737 0.0 0.0
 0.0 0.0 0.0 0.0 0.0 0.0 -0.2616403362997047 -0.11317738464924737
 -0.2616403362997047 -0.11317738464924737 0.0 0.0 0.0 0.0 0.0 0.0
 0.0 0.0 -0.2616403362997047 -0.11317738464924737 0.0 0.0 0.0 0.0
7.20052 0.0 0.0 0.0 0.0 -0.2759957080534757 -0.06898304016814436 0.0 0.0
 0.0 0.0 0.0 0.0 0.0 0.0 -0.2759957080534757 -0.06898304016814436
 -0.2759957080534757 -0.06898304016814436 0.0 0.0 0.0 0.0 0.0 0.0
 0.0 0.0 -0.2759957080534757 -0.06898304016814436 0.0 0.0 0.0 0.0
7.215519 0.0 0.0 0.0 0.0 -0.2829592800755946 -0.023136285486162714 0.0 0.0
 0.0 0.0 0.0 0.0 0.0 0.0 -0.2829592800755946 -0.023136285486162714
 -0.2829592800755946 -0.023136285486162714 0.0 0.0 0.0 0.0 0.0 0.0
 0.0 0.0 -0.2829592800755946 -0.023136285486162714 0.0 0.0 0.0 0.0
7.230518 0.0 0.0 0.0 0.0 -0.2823761028013631 0.023138046497515396 0.0 0.0
 0.0 0.0 0.0 0.0 0.0 0.0 -0.2823761028013631 0.023138046497515396
 -0.2823761028013631 0.023138046497515396 0.0 0.0 0.0 0.0 0.0 0.0
 0.0 0.0 -0.2823761028013631 0.023138046497515396 0.0 0.0 0.0 0.0
7.245517 0.0 0.0 0.0 0.0 -0.2742923601395821 0.06860872543147459 0.0 0.0
 0.0 0.0 0.0 0.0 0.0 0.0 -0.2742923601395821 0.06860872543147459
 -0.2742923601395821 0.06860872543147459 0.0 0.0 0.0 0.0 0.0 0.0
 0.0 0.0 -0.2742923601395821 0.06860872543147459 0.0 0.0 0.0 0.0
7.260516 0.0 0.0 0.0 0.0 -0.25895333077667193 0.11207086036004364 0.0 0.0
 0.0 0.0 0.0 0.0 0.0 0.0 -0.25895333077667193 0.11207086036004364
 -0.25895333077667193 0.11207086036004364 0.0 0.0 0.0 0.0 0.0 0.0
 0.0 0.0 -0.25895333077667193 0.11207086036004364 0.0 0.0 0.0 0.0
7.275515 0.0 0.0 0.0 0.0 -0.23679606831800232 0.1523778052305586 0.0 0.0
 0.0 0.0 0.0 0.0 0.0 0.0 -0.23679606831800232 0.1523778052305586
 -0.23679606831800232 0.1523778052305586 0.0 0.0 0.0 0.0 0.0 0.0
 0.0 0.0 -0.23679606831800232 0.1523778052305586 0.0 0.0 0.0 0.0
7.290514 0.0 0.0 0.0 0.0 -0.20843701586836016 0.18847138877649522 0.0 0.0
 0.0 0.0 0.0 0.0 0.0 0.0 -0.20843701586836016 0.18847138877649522
 -0.20843701586836016 0.18847138877649522 0.0 0.0 0.0 0.0 0.0 0.0
 0.0 0.0 -0.20843701586836016 0.18847138877649522 0.0 0.0 0.0 0.0
7.305513 0.0 0.0 0.0 0.0 -0.174654904363515 0.21940967237264145 0.0 0.0
 0.0 0.0 0.0 0.0 0.0 0.0 -0.174654904363515 0.21940967237264145
 -0.174654904363515 0.21940967237264145 0.0 0.0 0.0 0.0 0.0 0.0
 0.0 0.0 -0.174654904363515 0.21940967237264145 0.0 0.0 0.0 0.0
7.320512 0.0 0.0 0.0 0.0 -0.13636940786454183 0.2443915083044237 0.0 0.0
 0.0 0.0 0.0 0.0 0.0 0.0 -0.13636940786454183 0.2443915083044237
 -0.13636940786454183 0.2443915083044237 0.0 0.0 0.0 0.0 0.0 0.0
 0.0 0.0 -0.13636940786454183 0.2443915083044237 0.0 0.0 0.0 0.0
7.335511 0.0 0.0 0.0 0.0 -0.09461613986371488 0.2627772587937693 0.0 0.0
 0.0 0.0 0.0 0.0 0.0 0.0 -0.09461613986371488 0.2627772587937693
 -0.09461613986371488 0.2627772587937693 0.0 0.0 0.0 0.0 0.0 0.0
 0.0 0.0 -0.09461613986371488 0.2627772587937693 0.0 0.0 0.0 0.0
7.35051 0.0 0.0 0.0 0.0 -0.05051866953242323 0.27410514066857855 0.0 0.0
 0.0 0.0 0.0 0.0 0.0 0.0 -0.05051866953242323 0.27410514066857855
 -0.05051866953242323 0.27410514066857855 0.0 0.0 0.0 0.0 0.0 0.0
 0.0 0.0 -0.05051866953242323 0.27410514066857855 0.0 0.0 0.0 0.0
7.365509 0.0 0.0 0.0 0.0 -0.005258313310130077 0.2781027789087672 0.0 0.0
 0.0 0.0 0.0 0.0 0.0 0.0 -0.005258313310130077 0.2781027789087672
 -0.005258313310130077 0.2781027789087672 0.0 0.0 0.0 0.0 0.0 0.0
 0.0 0.0 -0.005258313310130077 0.2781027789087672 0.0 0.0 0.0 0.0
7.380508 0.0 0.0 0.0 0.0 0.03995748666918108 0.27469368125038846 0.0 0.0
 0.0 0.0 0.0 0.0 0.0 0.0 0.03995748666918108 0.27469368125038846
 0.03995748666918108 0.27469368125038846 0.0 0.0 0.0 0.0 0.0 0.0
 0.0 0.0 0.03995748666918108 0.27469368125038846 0.0 0.0 0.0 0.0
7.395507 0.0 0.0 0.0 0.0 0.08392735150146867 0.26399848211346555 0.0 0.0
 0.0 0.0 0.0 0.0 0.0 0.0 0.08392735150146867 0.26399848211346555
 0.08392735150146867 0.26399848211346555 0.0 0.0 0.0 0.0 0.0 0.0
 0.0 0.0 0.08392735150146867 0.26399848211346555 0.0 0.0 0.0 0.0
7.410506 0.0 0.0 0.0 0.0 0.12548786426734473 0.2463309436949289 0.0 0.0
 0.0 0.0 0.0 0.0 0.0 0.0 0.12548786426734473 0.2463309436949289
 0.12548786426734473 0.2463309436949289 0.0 0.0 0.0 0.0 0.0 0.0
 0.0 0.0 0.12548786426734473 0.2463309436949289 0.0 0.0 0.0 0.0
7.425505 0.0 0.0 0.0 0.0 0.16354433221724016 0.22218884141405318 0.0 0.0
 0.0 0.0 0.0 0.0 0.0 0.0 0.16354433221724016 0.22218884141405318
 0.16354433221724016 0.22218884141405318 0.0 0.0 0.0 0.0 0.0 0.0
 0.0 0.0 0.16354433221724016 0.22218884141405318 0.0 0.0 0.0 0.0
7.440504 0.0 0.0 0.0 0.0 0.19709959955106 0.19223999631245117 0.0 0.0
 0.0 0.0 0.0 0.0 0.0 0.0 0.19709959955106 0.19223999631245117
 0.19709959955106 0.19223999631245117 0.0 0.0 0.0 0.0 0.0 0.0
 0.0 0.0 0.19709959955106 0.19223999631245117 0.0 0.0 0.0 0.0
7.455503 0.0 0.0 0.0 0.0 0.22528015298318022 0.15730384491245356 0.0 0.0
 0.0 0.0 0.0 0.0 0.0 0.0 0.22528015298318022 0.15730384491245356
 0.22528015298318022 0.15730384491245356 0.0 0.0 0.0 0.0 0.0 0.0
 0.0 0.0 0.22528015298318022 0.15730384491245356 0.0 0.0 0.0 0.0
7.470502 0.0 0.0 0.0 0.0 0.24735883722792562 0.11832905405722759 0.0 0.0
 0.0 0.0 0.0 0.0 0.0 0.0 0.24735883722792562 0.11832905405722759
 0.24735883722792562 0.11832905405722759 0.0 0.0 0.0 0.0 0.0 0.0
 0.0 0.0 0.24735883722792562 0.11832905405722759 0.0 0.0 0.0 0.0
7.485501 0.0 0.0 0.0 0.0 0.26277359033096676 0.07636779132808766 0.0 0.0
 0.0 0.0 0.0 0.0 0.0 0.0 0.26277359033096676 0.07636779132808766
 0.26277359033096676 0.07636779132808766 0.0 0.0 0.0 0.0 0.0 0.0
 0.0 0.0 0.26277359033096676 0.07636779132808766 0.0 0.0 0.0 0.0
7.5005 0.0 0.0 0.0 0.0 0.27114171687426863 0.03254734807487276 0.0 0.0
 0.0 0.0 0.0 0.0 0.0 0.0 0.27114171687426863 0.03254734807487276
 0.27114171687426863 0.03254734807487276 0.0 0.0 0.0 0.0 0.0 0.0
 0.0 0.0 0.27114171687426863 0.03254734807487276 0.0 0.0 0.0 0.0
7.515499 0.0 0.0 0.0 0.0 0.27226933756300786 -0.011960120327129476 0.0 0.0
 0.0 0.0 0.0 0.0 0.0 0.0 0.27226933756300786 -0.011960120327129476
 0.27226933756300786 -0.011960120327129476 0.0 0.0 0.0 0.0 0.0 0.0
 0.0 0.0 0.27226933756300786 -0.011960120327129476 0.0 0.0 0.0 0.0
7.530498 0.0 0.0 0.0 0.0 0.2661557833122775 -0.05596892538595622 0.0 0.0
 0.0 0.0 0.0 0.0 0.0 0.0 0.2661557833122775 -0.05596892538595622
 0.2661557833122775 -0.05596892538595622 0.0 0.0 0.0 0.0 0.0 0.0
 0.0 0.0 0.2661557833122775 -0.05596892538595622 0.0 0.0 0.0 0.0
7.545497 0.0 0.0 0.0 0.0 0.25299283721018123 -0.09831141071751863 0.0 0.0
 0.0 0.0 0.0 0.0 0.0 0.0 0.25299283721018123 -0.09831141071751863
 0.25299283721018123 -0.09831141071751863 0.0 0.0 0.0 0.0 0.0 0.0
 0.0 0.0 0.25299283721018123 -0.09831141071751863 0.0 0.0 0.0 0.0
7.560496 0.0 0.0 0.0 0.0 0.23315886502535046 -0.13786891182994404 0.0 0.0
 0.0 0.0 0.0 0.0 0.0 0.0 0.23315886502535046 -0.13786891182994404
 0.23315886502535046 -0.13786891182994404 0.0 0.0 0.0 0.0 0.0 0.0
 0.0 0.0 0.23315886502535046 -0.13786891182994404 0.0 0.0 0.0 0.0
7.575495 0.0 0.0 0.0 0.0 0.2072080105954121 -0.17360129013166584 0.0 0.0
 0.0 0.0 0.0 0.0 0.0 0.0 0.2072080105954121 -0.17360129013166584
 0.2072080105954121 -0.17360129013166584 0.0 0.0 0.0 0.0 0.0 0.0
 0.0 0.0 0.2072080105954121 -0.17360129013166584 0.0 0.0 0.0 0.0
7.590494 0.0 0.0 0.0 0.0 0.17585476287959978 -0.20457426196934556 0.0 0.0
 0.0 0.0 0.0 0.0 0.0 0.0 0.17585476287959978 -0.20457426196934556
 0.17585476287959978 -0.20457426196934556 0.0 0.0 0.0 0.0 0.0 0.0
 0.0 0.0 0.17585476287959978 -0.20457426196934556 0.0 0.0 0.0 0.0
7.605493 0.0 0.0 0.0 0.0 0.13995432323808932 -0.22998380518685252 0.0 0.0
 0.0 0.0 0.0 0.0 0.0 0.0 0.13995432323808932 -0.22998380518685252
 0.13995432323808932 -0.22998380518685252 0.0 0.0 0.0 0.0 0.0 0.0
 0.0 0.0 0.13995432323808932 -0.22998380518685252 0.0 0.0 0.0 0.0
7.620492 0.0 0.0 0.0 0.0 0.1004793114105889 -0.24917700620539354 0.0 0.0
 0.0 0.0 0.0 0.0 0.0 0.0 0.1004793114105889 -0.24917700620539354
 0.1004793114105889 -0.24917700620539354 0.0 0.0 0.0 0.0 0.0 0.0
 0.0 0.0 0.1004793114105889 -0.24917700620539354 0.0 0.0 0.0 0.0
7.635491 0.0 0.0 0.0 0.0 0.05849344383339528 -0.26166880774360846 0.0 0.0
 0.0 0.0 0.0 0.0 0.0 0.0 0.05849344383339528 -0.26166880774360846
 0.05849344383339528 -0.26166880774360846 0.0 0.0 0.0 0.0 0.0 0.0
 0.0 0.0 0.05849344383339528 -0.26166880774360846 0.0 0.0 0.0 0.0
7.65049 0.0 0.0 0.0 0.0 0.015122895886434881 -0.2671542283792369 0.0 0.0
 0.0 0.0 0.0 0.0 0.0 0.0 0.015122895886434881 -0.2671542283792369
 0.015122895886434881 -0.2671542283792369 0.0 0.0 0.0 0.0 0.0 0.0
 0.0 0.0 0.015122895886434881 -0.2671542283792369 0.0 0.0 0.0 0.0
7.665489 0.0 0.0 0.0 0.0 -0.02847388160395587 -0.26551574719386795 0.0 0.0
 0.0 0.0 0.0 0.0 0.0 0.0 -0.02847388160395587 -0.26551574719386795
 -0.02847388160395587 -0.26551574719386795 0.0 0.0 0.0 0.0 0.0 0.0
 0.0 0.0 -0.02847388160395587 -0.26551574719386795 0.0 0.0 0.0 0.0
7.680488 0.0 0.0 0.0 0.0 -0.07113708325023346 -0.25682567645326143 0.0 0.0
 0.0 0.0 0.0 0.0 0.0 0.0 -0.07113708325023346 -0.25682567645326143
 -0.07113708325023346 -0.25682567645326143 0.0 0.0 0.0 0.0 0.0 0.0
 0.0 0.0 -0.07113708325023346 -0.25682567645326143 0.0 0.0 0.0 0.0
7.695487 0.0 0.0 0.0 0.0 -0.11173638262273476 -0.24134347918043353 0.0 0.0
 0.0 0.0 0.0 0.0 0.0 0.0 -0.11173638262273476 -0.24134347918043353
 -0.11173638262273476 -0.24134347918043353 0.0 0.0 0.0 0.0 0.0 0.0
 0.0 0.0 -0.11173638262273476 -0.24134347918043353 0.0 0.0 0.0 0.0
7.710486 0.0 0.0 0.0 0.0 -0.14920085923454393 -0.21950812300225475 0.0 0.0
 0.0 0.0 0.0 0.0 0.0 0.0 -0.14920085923454393 -0.21950812300225475
 -0.14920085923454393 -0.21950812300225475 0.0 0.0 0.0 0.0 0.0 0.0
 0.0 0.0 -0.14920085923454393 -0.21950812300225475 0.0 0.0 0.0 0.0
7.725485 0.0 0.0 0.0 0.0 -0.18254722715920585 -0.19192569321501635 0.0 0.0
 0.0 0.0 0.0 0.0 0.0 0.0 -0.18254722715920585 -0.19192569321501635
 -0.18254722715920585 -0.19192569321501635 0.0 0.0 0.0 0.0 0.0 0.0
 0.0 0.0 -0.18254722715920585 -0.19192569321501635 0.0 0.0 0.0 0.0
7.740484 0.0 0.0 0.0 0.0 -0.21090562172039337 -0.159352613135561 0.0 0.0
 0.0 0.0 0.0 0.0 0.0 0.0 -0.21090562172039337 -0.159352613135561
 -0.21090562172039337 -0.159352613135561 0.0 0.0 0.0 0.0 0.0 0.0
 0.0 0.0 -0.21090562172039337 -0.159352613135561 0.0 0.0 0.0 0.0
7.755483 0.0 0.0 0.0 0.0 -0.23354226853711121 -0.12267493518198848 0.0 0.0
 0.0 0.0 0.0 0.0 0.0 0.0 -0.23354226853711121 -0.12267493518198848
 -0.23354226853711121 -0.12267493518198848 0.0 0.0 0.0 0.0 0.0 0.0
 0.0 0.0 -0.23354226853711121 -0.12267493518198848 0.0 0.0 0.0 0.0
7.770482 0.0 0.0 0.0 0.0 -0.24987844474463491 -0.0828842687335018 0.0 0.0
 0.0 0.0 0.0 0.0 0.0 0.0 -0.24987844474463491 -0.0828842687335018
 -0.24987844474463491 -0.0828842687335018 0.0 0.0 0.0 0.0 0.0 0.0
 0.0 0.0 -0.24987844474463491 -0.0828842687335018 0.0 0.0 0.0 0.0
7.785481 0.0 0.0 0.0 0.0 -0.2595052430976447 -0.04105099797557504 0.0 0.0
 0.0 0.0 0.0 0.0 0.0 0.0 -0.2595052430976447 -0.04105099797557504
 -0.2595052430976447 -0.04105099797557504 0.0 0.0 0.0 0.0 0.0 0.0
 0.0 0.0 -0.2595052430976447 -0.04105099797557504 0.0 0.0 0.0 0.0
7.80048 0.0 0.0 0.0 0.0 -0.26219376315614096 0.0017044876114400208 0.0 0.0
 0.0 0.0 0.0 0.0 0.0 0.0 -0.26219376315614096 0.0017044876114400208
 -0.26219376315614096 0.0017044876114400208 0.0 0.0 0.0 0.0 0.0 0.0
 0.0 0.0 -0.26219376315614096 0.0017044876114400208 0.0 0.0 0.0 0.0
7.815479 0.0 0.0 0.0 0.0 -0.2579004767910218 0.044241777491328356 0.0 0.0
 0.0 0.0 0.0 0.0 0.0 0.0 -0.2579004767910218 0.044241777491328356
 -0.2579004767910218 0.044241777491328356 0.0 0.0 0.0 0.0 0.0 0.0
 0.0 0.0 -0.2579004767910218 0.044241777491328356 0.0 0.0 0.0 0.0
7.830478 0.0 0.0 0.0 0.0 -0.24676764451707134 0.08543083717262118 0.0 0.0
 0.0 0.0 0.0 0.0 0.0 0.0 -0.24676764451707134 0.08543083717262118
 -0.24676764451707134 0.08543083717262118 0.0 0.0 0.0 0.0 0.0 0.0
 0.0 0.0 -0.24676764451707134 0.08543083717262118 0.0 0.0 0.0 0.0
7.845477 0.0 0.0 0.0 0.0 -0.2291187912059271 0.12418200849603918 0.0 0.0
 0.0 0.0 0.0 0.0 0.0 0.0 -0.2291187912059271 0.12418200849603918
 -0.2291187912059271 0.12418200849603918 0.0 0.0 0.0 0.0 0.0 0.0
 0.0 0.0 -0.2291187912059271 0.12418200849603918 0.0 0.0 0.0 0.0
7.860476 0.0 0.0 0.0 0.0 -0.20544938103010993 0.15947481717849682 0.0 0.0
 0.0 0.0 0.0 0.0 0.0 0.0 -0.20544938103010993 0.15947481717849682
 -0.20544938103010993 0.15947481717849682 0.0 0.0 0.0 0.0 0.0 0.0
 0.0 0.0 -0.20544938103010993 0.15947481717849682 0.0 0.0 0.0 0.0
7.875475 0.0 0.0 0.0 0.0 -0.17641295855400504 0.19038482653083344 0.0 0.0
 0.0 0.0 0.0 0.0 0.0 0.0 -0.17641295855400504 0.19038482653083344
 -0.17641295855400504 0.19038482653083344 0.0 0.0 0.0 0.0 0.0 0.0
 0.0 0.0 -0.17641295855400504 0.19038482653083344 0.0 0.0 0.0 0.0
7.890474 0.0 0.0 0.0 0.0 -0.14280314235824484 0.2161078312076634 0.0 0.0
 0.0 0.0 0.0 0.0 0.0 0.0 -0.14280314235824484 0.2161078312076634
 -0.14280314235824484 0.2161078312076634 0.0 0.0 0.0 0.0 0.0 0.0
 0.0 0.0 -0.14280314235824484 0.2161078312076634 0.0 0.0 0.0 0.0
7.905473 0.0 0.0 0.0 0.0 -0.10553196631376115 0.23598075834468724 0.0 0.0
 0.0 0.0 0.0 0.0 0.0 0.0 -0.10553196631376115 0.23598075834468724
 -0.10553196631376115 0.23598075834468724 0.0 0.0 0.0 0.0 0.0 0.0
 0.0 0.0 -0.10553196631376115 0.23598075834468724 0.0 0.0 0.0 0.0
7.920472 0.0 0.0 0.0 0.0 -0.0656051587631934 0.24949873346401927 0.0 0.0
 0.0 0.0 0.0 0.0 0.0 0.0 -0.0656051587631934 0.24949873346401927
 -0.0656051587631934 0.24949873346401927 0.0 0.0 0.0 0.0 0.0 0.0
 0.0 0.0 -0.0656051587631934 0.24949873346401927 0.0 0.0 0.0 0.0
7.935471 0.0 0.0 0.0 0.0 -0.02409502894406619 0.25632787262478307 0.0 0.0
 0.0 0.0 0.0 0.0 0.0 0.0 -0.02409502894406619 0.25632787262478307
 -0.02409502894406619 0.25632787262478307 0.0 0.0 0.0 0.0 0.0 0.0
 0.0 0.0 -0.02409502894406619 0.25632787262478307 0.0 0.0 0.0 0.0
7.95047 0.0 0.0 0.0 0.0 0.01788830903921295 0.2563134776418335 0.0 0.0
 0.0 0.0 0.0 0.0 0.0 0.0 0.01788830903921295 0.2563134776418335
 0.01788830903921295 0.2563134776418335 0.0 0.0 0.0 0.0 0.0 0.0
 0.0 0.0 0.01788830903921295 0.2563134776418335 0.0 0.0 0.0 0.0
7.965469 0.0 0.0 0.0 0.0 0.05922660306828658 0.24948343467963863 0.0 0.0
 0.0 0.0 0.0 0.0 0.0 0.0 0.05922660306828658 0.24948343467963863
 0.05922660306828658 0.24948343467963863 0.0 0.0 0.0 0.0 0.0 0.0
 0.0 0.0 0.05922660306828658 0.24948343467963863 0.0 0.0 0.0 0.0
7.980468 0.0 0.0 0.0 0.0 0.09882322841967103 0.2360467448369879 0.0 0.0
 0.0 0.0 0.0 0.0 0.0 0.0 0.09882322841967103 0.2360467448369879
 0.09882322841967103 0.2360467448369879 0.0 0.0 0.0 0.0 0.0 0.0
 0.0 0.0 0.09882322841967103 0.2360467448369879 0.0 0.0 0.0 0.0
7.995467 0.0 0.0 0.0 0.0 0.1356322599601241 0.21638724504113613 0.0 0.0
 0.0 0.0 0.0 0.0 0.0 0.0 0.1356322599601241 0.21638724504113613
 0.1356322599601241 0.21638724504113613 0.0 0.0 0.0 0.0 0.0 0.0
 0.0 0.0 0.1356322599601241 0.21638724504113613 0.0 0.0 0.0 0.0
8.010466 0.0 0.0 0.0 0.0 0.1686860809077968 0.19105270521388762 0.0 0.0
 0.0 0.0 0.0 0.0 0.0 0.0 0.1686860809077968 0.19105270521388762
 0.1686860809077968 0.19105270521388762 0.0 0.0 0.0 0.0 0.0 0.0
 0.0 0.0 0.1686860809077968 0.19105270521388762 0.0 0.0 0.0 0.0
8.025465 0.0 0.0 0.0 0.0 0.19712079987869224 0.16073960987153238 0.0 0.0
 0.0 0.0 0.0 0.0 0.0 0.0 0.19712079987869224 0.16073960987153238
 0.19712079987869224 0.16073960987153238 0.0 0.0 0.0 0.0 0.0 0.0
 0.0 0.0 0.19712079987869224 0.16073960987153238 0.0 0.0 0.0 0.0
8.040464 0.0 0.0 0.0 0.0 0.2201988090768317 0.12627404584799032 0.0 0.0
 0.0 0.0 0.0 0.0 0.0 0.0 0.2201988090768317 0.12627404584799032
 0.2201988090768317 0.12627404584799032 0.0 0.0 0.0 0.0 0.0 0.0
 0.0 0.0 0.2201988090768317 0.12627404584799032 0.0 0.0 0.0 0.0
8.055463 0.0 0.0 0.0 0.0 0.23732789512286992 0.088589219701674 0.0 0.0
 0.0 0.0 0.0 0.0 0.0 0.0 0.23732789512286992 0.088589219701674
 0.23732789512286992 0.088589219701674 0.0 0.0 0.0 0.0 0.0 0.0
 0.0 0.0 0.23732789512286992 0.088589219701674 0.0 0.0 0.0 0.0
8.070462 0.0 0.0 0.0 0.0 0.24807640799114208 0.04870021591830217 0.0 0.0
 0.0 0.0 0.0 0.0 0.0 0.0 0.24807640799114208 0.04870021591830217
 0.24807640799114208 0.04870021591830217 0.0 0.0 0.0 0.0 0.0 0.0
 0.0 0.0 0.24807640799114208 0.04870021591830217 0.0 0.0 0.0 0.0
8.085461 0.0 0.0 0.0 0.0 0.252184100280579 0.007676677982785169 0.0 0.0
 0.0 0.0 0.0 0.0 0.0 0.0 0.252184100280579 0.007676677982785169
 0.252184100280579 0.007676677982785169 0.0 0.0 0.0 0.0 0.0 0.0
 0.0 0.0 0.252184100280579 0.007676677982785169 0.0 0.0 0.0 0.0
8.10046 0.0 0.0 0.0 0.0 0.2495683656928261 -0.033385853059160274 0.0 0.0
 0.0 0.0 0.0 0.0 0.0 0.0 0.2495683656928261 -0.033385853059160274
 0.2495683656928261 -0.033385853059160274 0.0 0.0 0.0 0.0 0.0 0.0
 0.0 0.0 0.2495683656928261 -0.033385853059160274 0.0 0.0 0.0 0.0
8.115459 0.0 0.0 0.0 0.0 0.24032572899091972 -0.07339517511977289 0.0 0.0
 0.0 0.0 0.0 0.0 0.0 0.0 0.24032572899091972 -0.07339517511977289
 0.24032572899091972 -0.07339517511977289 0.0 0.0 0.0 0.0 0.0 0.0
 0.0 0.0 0.24032572899091972 -0.07339517511977289 0.0 0.0 0.0 0.0
8.130458 0.0 0.0 0.0 0.0 0.2247285665568786 -0.11129145696301077 0.0 0.0
 0.0 0.0 0.0 0.0 0.0 0.0 0.2247285665568786 -0.11129145696301077
 0.2247285665568786 -0.11129145696301077 0.0 0.0 0.0 0.0 0.0 0.0
 0.0 0.0 0.2247285665568786 -0.11129145696301077 0.0 0.0 0.0 0.0
8.145457 0.0 0.0 0.0 0.0 0.2032171635704046 -0.14607529427284485 0.0 0.0
 0.0 0.0 0.0 0.0 0.0 0.0 0.2032171635704046 -0.14607529427284485
 0.2032171635704046 -0.14607529427284485 0.0 0.0 0.0 0.0 0.0 0.0
 0.0 0.0 0.2032171635704046 -0.14607529427284485 0.0 0.0 0.0 0.0
8.160456 0.0 0.0 0.0 0.0 0.1763873374192199 -0.17683404767320784 0.0 0.0
 0.0 0.0 0.0 0.0 0.0 0.0 0.1763873374192199 -0.17683404767320784
 0.1763873374192199 -0.17683404767320784 0.0 0.0 0.0 0.0 0.0 0.0
 0.0 0.0 0.1763873374192199 -0.17683404767320784 0.0 0.0 0.0 0.0
8.175455 0.0 0.0 0.0 0.0 0.14497397395081923 -0.20276576907775568 0.0 0.0
 0.0 0.0 0.0 0.0 0.0 0.0 0.14497397395081923 -0.20276576907775568
 0.14497397395081923 -0.20276576907775568 0.0 0.0 0.0 0.0 0.0 0.0
 0.0 0.0 0.14497397395081923 -0.20276576907775568 0.0 0.0 0.0 0.0
8.190454 0.0 0.0 0.0 0.0 0.10983093050058866 -0.2232000896021367 0.0 0.0
 0.0 0.0 0.0 0.0 0.0 0.0 0.10983093050058866 -0.2232000896021367
 0.10983093050058866 -0.2232000896021367 0.0 0.0 0.0 0.0 0.0 0.0
 0.0 0.0 0.10983093050058866 -0.2232000896021367 0.0 0.0 0.0 0.0
8.205453 0.0 0.0 0.0 0.0 0.07190785446602323 -0.2376155255316745 0.0 0.0
 0.0 0.0 0.0 0.0 0.0 0.0 0.07190785446602323 -0.2376155255316745
 0.07190785446602323 -0.2376155255316745 0.0 0.0 0.0 0.0 0.0 0.0
 0.0 0.0 0.07190785446602323 -0.2376155255316745 0.0 0.0 0.0 0.0
8.220452 0.0 0.0 0.0 0.0 0.03222454606786862 -0.24565275622512905 0.0 0.0
 0.0 0.0 0.0 0.0 0.0 0.0 0.03222454606786862 -0.24565275622512905
 0.03222454606786862 -0.24565275622512905 0.0 0.0 0.0 0.0 0.0 0.0
 0.0 0.0 0.03222454606786862 -0.24565275622512905 0.0 0.0 0.0 0.0
8.235451 0.0 0.0 0.0 0.0 -0.008156443219161516 -0.24712353670570797 0.0 0.0
 0.0 0.0 0.0 0.0 0.0 0.0 -0.008156443219161516 -0.24712353670570797
 -0.008156443219161516 -0.24712353670570797 0.0 0.0 0.0 0.0 0.0 0.0
 0.0 0.0 -0.008156443219161516 -0.24712353670570797 0.0 0.0 0.0 0.0
8.25045 0.0 0.0 0.0 0.0 -0.04815824087514353 -0.24201502510404774 0.0 0.0
 0.0 0.0 0.0 0.0 0.0 0.0 -0.04815824087514353 -0.24201502510404774
 -0.04815824087514353 -0.24201502510404774 0.0 0.0 0.0 0.0 0.0 0.0
 0.0 0.0 -0.04815824087514353 -0.24201502510404774 0.0 0.0 0.0 0.0
8.265449 0.0 0.0 0.0 0.0 -0.0867183520218861 -0.23048942791930505 0.0 0.0
 0.0 0.0 0.0 0.0 0.0 0.0 -0.0867183520218861 -0.23048942791930505
 -0.0867183520218861 -0.23048942791930505 0.0 0.0 0.0 0.0 0.0 0.0
 0.0 0.0 -0.0867183520218861 -0.23048942791930505 0.0 0.0 0.0 0.0
8.280448 0.0 0.0 0.0 0.0 -0.1228168622670926 -0.21287899096655782 0.0 0.0
 0.0 0.0 0.0 0.0 0.0 0.0 -0.1228168622670926 -0.21287899096655782
 -0.1228168622670926 -0.21287899096655782 0.0 0.0 0.0 0.0 0.0 0.0
 0.0 0.0 -0.1228168622670926 -0.21287899096655782 0.0 0.0 0.0 0.0
8.295447 0.0 0.0 0.0 0.0 -0.15550339656775175 -0.18967648755231056 0.0 0.0
 0.0 0.0 0.0 0.0 0.0 0.0 -0.15550339656775175 -0.18967648755231056
 -0.15550339656775175 -0.18967648755231056 0.0 0.0 0.0 0.0 0.0 0.0
 0.0 0.0 -0.15550339656775175 -0.18967648755231056 0.0 0.0 0.0 0.0
8.310446 0.0 0.0 0.0 0.0 -0.18392212199176156 -0.16152147458040897 0.0 0.0
 0.0 0.0 0.0 0.0 0.0 0.0 -0.18392212199176156 -0.16152147458040897
 -0.18392212199176156 -0.16152147458040897 0.0 0.0 0.0 0.0 0.0 0.0
 0.0 0.0 -0.18392212199176156 -0.16152147458040897 0.0 0.0 0.0 0.0
8.325445 0.0 0.0 0.0 0.0 -0.20733413707163686 -0.12918269878690986 0.0 0.0
 0.0 0.0 0.0 0.0 0.0 0.0 -0.20733413707163686 -0.12918269878690986
 -0.20733413707163686 -0.12918269878690986 0.0 0.0 0.0 0.0 0.0 0.0
 0.0 0.0 -0.20733413707163686 -0.12918269878690986 0.0 0.0 0.0 0.0
8.340444 0.0 0.0 0.0 0.0 -0.2251366625269467 -0.09353713619891446 0.0 0.0
 0.0 0.0 0.0 0.0 0.0 0.0 -0.2251366625269467 -0.09353713619891446
 -0.2251366625269467 -0.09353713619891446 0.0 0.0 0.0 0.0 0.0 0.0
 0.0 0.0 -0.2251366625269467 -0.09353713619891446 0.0 0.0 0.0 0.0
8.355443 0.0 0.0 0.0 0.0 -0.23687853549847623 -0.055546235566746836 0.0 0.0
 0.0 0.0 0.0 0.0 0.0 0.0 -0.23687853549847623 -0.055546235566746836
 -0.23687853549847623 -0.055546235566746836 0.0 0.0 0.0 0.0 0.0 0.0
 0.0 0.0 -0.23687853549847623 -0.055546235566746836 0.0 0.0 0.0 0.0
8.370442 0.0 0.0 0.0 0.0 -0.2422716097039277 -0.016230008651647455 0.0 0.0
 0.0 0.0 0.0 0.0 0.0 0.0 -0.2422716097039277 -0.016230008651647455
 -0.2422716097039277 -0.016230008651647455 0.0 0.0 0.0 0.0 0.0 0.0
 0.0 0.0 -0.2422716097039277 -0.016230008651647455 0.0 0.0 0.0 0.0
8.385441 0.0 0.0 0.0 0.0 -0.24119777437581405 0.023360334996337603 0.0 0.0
 0.0 0.0 0.0 0.0 0.0 0.0 -0.24119777437581405 0.023360334996337603
 -0.24119777437581405 0.023360334996337603 0.0 0.0 0.0 0.0 0.0 0.0
 0.0 0.0 -0.24119777437581405 0.023360334996337603 0.0 0.0 0.0 0.0
8.40044 0.0 0.0 0.0 0.0 -0.2337114224995779 0.062170475151323484 0.0 0.0
 0.0 0.0 0.0 0.0 0.0 0.0 -0.2337114224995779 0.062170475151323484
 -0.2337114224995779 0.062170475151323484 0.0 0.0 0.0 0.0 0.0 0.0
 0.0 0.0 -0.2337114224995779 0.062170475151323484 0.0 0.0 0.0 0.0
8.415439 0.0 0.0 0.0 0.0 -0.220037320576895 0.0991710399659812 0.0 0.0
 0.0 0.0 0.0 0.0 0.0 0.0 -0.220037320576895 0.0991710399659812
 -0.220037320576895 0.0991710399659812 0.0 0.0 0.0 0.0 0.0 0.0
 0.0 0.0 -0.220037320576895 0.0991710399659812 0.0 0.0 0.0 0.0
8.430438 0.0 0.0 0.0 0.0 -0.20056395464255805 0.133384890697479 0.0 0.0
 0.0 0.0 0.0 0.0 0.0 0.0 -0.20056395464255805 0.133384890697479
 -0.20056395464255805 0.133384890697479 0.0 0.0 0.0 0.0 0.0 0.0
 0.0 0.0 -0.20056395464255805 0.133384890697479 0.0 0.0 0.0 0.0
8.445437 0.0 0.0 0.0 0.0 -0.1758325473019655 0.16391290935138747 0.0 0.0
 0.0 0.0 0.0 0.0 0.0 0.0 -0.1758325473019655 0.16391290935138747
 -0.1758325473019655 0.16391290935138747 0.0 0.0 0.0 0.0 0.0 0.0
 0.0 0.0 -0.1758325473019655 0.16391290935138747 0.0 0.0 0.0 0.0
8.460436 0.0 0.0 0.0 0.0 -0.14652205494682155 0.18995760913852042 0.0 0.0
 0.0 0.0 0.0 0.0 0.0 0.0 -0.14652205494682155 0.18995760913852042
 -0.14652205494682155 0.18995760913852042 0.0 0.0 0.0 0.0 0.0 0.0
 0.0 0.0 -0.14652205494682155 0.18995760913852042 0.0 0.0 0.0 0.0
8.475435 0.0 0.0 0.0 0.0 -0.1134305600282392 0.21084394821353164 0.0 0.0
 0.0 0.0 0.0 0.0 0.0 0.0 -0.1134305600282392 0.21084394821353164
 -0.1134305600282392 0.21084394821353164 0.0 0.0 0.0 0.0 0.0 0.0
 0.0 0.0 -0.1134305600282392 0.21084394821353164 0.0 0.0 0.0 0.0
8.490434 0.0 0.0 0.0 0.0 -0.07745356754084362 0.22603680398139026 0.0 0.0
 0.0 0.0 0.0 0.0 0.0 0.0 -0.07745356754084362 0.22603680398139026
 -0.07745356754084362 0.22603680398139026 0.0 0.0 0.0 0.0 0.0 0.0
 0.0 0.0 -0.07745356754084362 0.22603680398139026 0.0 0.0 0.0 0.0
8.505433 0.0 0.0 0.0 0.0 -0.03955979523489886 0.23515465621321502 0.0 0.0
 0.0 0.0 0.0 0.0 0.0 0.0 -0.03955979523489886 0.23515465621321502
 -0.03955979523489886 0.23515465621321502 0.0 0.0 0.0 0.0 0.0 0.0
 0.0 0.0 -0.03955979523489886 0.23515465621321502 0.0 0.0 0.0 0.0
8.520432 0.0 0.0 0.0 0.0 -0.0007651114426604753 0.23797912983144465 0.0 0.0
 0.0 0.0 0.0 0.0 0.0 0.0 -0.0007651114426604753 0.23797912983144465
 -0.0007651114426604753 0.23797912983144465 0.0 0.0 0.0 0.0 0.0 0.0
 0.0 0.0 -0.0007651114426604753 0.23797912983144465 0.0 0.0 0.0 0.0
8.535431 0.0 0.0 0.0 0.0 0.037894678870660524 0.23446015973157133 0.0 0.0
 0.0 0.0 0.0 0.0 0.0 0.0 0.037894678870660524 0.23446015973157133
 0.037894678870660524 0.23446015973157133 0.0 0.0 0.0 0.0 0.0 0.0
 0.0 0.0 0.037894678870660524 0.23446015973157133 0.0 0.0 0.0 0.0
8.55043 0.0 0.0 0.0 0.0 0.07539147131604475 0.22471665740275656 0.0 0.0
 0.0 0.0 0.0 0.0 0.0 0.0 0.07539147131604475 0.22471665740275656
 0.07539147131604475 0.22471665740275656 0.0 0.0 0.0 0.0 0.0 0.0
 0.0 0.0 0.07539147131604475 0.22471665740275656 0.0 0.0 0.0 0.0
8.565429 0.0 0.0 0.0 0.0 0.11073218561879611 0.2090326792469674 0.0 0.0
 0.0 0.0 0.0 0.0 0.0 0.0 0.11073218561879611 0.2090326792469674
 0.11073218561879611 0.2090326792469674 0.0 0.0 0.0 0.0 0.0 0.0
 0.0 0.0 0.11073218561879611 0.2090326792469674 0.0 0.0 0.0 0.0
8.580428 0.0 0.0 0.0 0.0 0.14298504977573975 0.18784921616928965 0.0 0.0
 0.0 0.0 0.0 0.0 0.0 0.0 0.14298504977573975 0.18784921616928965
 0.14298504977573975 0.18784921616928965 0.0 0.0 0.0 0.0 0.0 0.0
 0.0 0.0 0.14298504977573975 0.18784921616928965 0.0 0.0 0.0 0.0
8.595427 0.0 0.0 0.0 0.0 0.1713041496058899 0.16175184003895737 0.0 0.0
 0.0 0.0 0.0 0.0 0.0 0.0 0.1713041496058899 0.16175184003895737
 0.1713041496058899 0.16175184003895737 0.0 0.0 0.0 0.0 0.0 0.0
 0.0 0.0 0.1713041496058899 0.16175184003895737 0.0 0.0 0.0 0.0
8.610426 0.0 0.0 0.0 0.0 0.19495159733029493 0.13145455192894337 0.0 0.0
 0.0 0.0 0.0 0.0 0.0 0.0 0.19495159733029493 0.13145455192894337
 0.19495159733029493 0.13145455192894337 0.0 0.0 0.0 0.0 0.0 0.0
 0.0 0.0 0.19495159733029493 0.13145455192894337 0.0 0.0 0.0 0.0
8.625425 0.0 0.0 0.0 0.0 0.21331673868482282 0.09778027674938503 0.0 0.0
 0.0 0.0 0.0 0.0 0.0 0.0 0.21331673868482282 0.09778027674938503
 0.21331673868482282 0.09778027674938503 0.0 0.0 0.0 0.0 0.0 0.0
 0.0 0.0 0.21331673868482282 0.09778027674938503 0.0 0.0 0.0 0.0
8.640424 0.0 0.0 0.0 0.0 0.22593189912548797 0.061638536381665006 0.0 0.0
 0.0 0.0 0.0 0.0 0.0 0.0 0.22593189912548797 0.061638536381665006
 0.22593189912548797 0.061638536381665006 0.0 0.0 0.0 0.0 0.0 0.0
 0.0 0.0 0.22593189912548797 0.061638536381665006 0.0 0.0 0.0 0.0
8.655423 0.0 0.0 0.0 0.0 0.23248426371519726 0.024000906414740467 0.0 0.0
 0.0 0.0 0.0 0.0 0.0 0.0 0.23248426371519726 0.024000906414740467
 0.23248426371519726 0.024000906414740467 0.0 0.0 0.0 0.0 0.0 0.0
 0.0 0.0 0.23248426371519726 0.024000906414740467 0.0 0.0 0.0 0.0
8.670422 0.0 0.0 0.0 0.0 0.23282358973119469 -0.01412508180255367 0.0 0.0
 0.0 0.0 0.0 0.0 0.0 0.0 0.23282358973119469 -0.01412508180255367
 0.23282358973119469 -0.01412508180255367 0.0 0.0 0.0 0.0 0.0 0.0
 0.0 0.0 0.23282358973119469 -0.01412508180255367 0.0 0.0 0.0 0.0
8.685421 0.0 0.0 0.0 0.0 0.22696556308489568 -0.051722893292447794 0.0 0.0
 0.0 0.0 0.0 0.0 0.0 0.0 0.22696556308489568 -0.051722893292447794
 0.22696556308489568 -0.051722893292447794 0.0 0.0 0.0 0.0 0.0 0.0
 0.0 0.0 0.22696556308489568 -0.051722893292447794 0.0 0.0 0.0 0.0
8.70042 0.0 0.0 0.0 0.0 0.2150907262898372 -0.08779407526362122 0.0 0.0
 0.0 0.0 0.0 0.0 0.0 0.0 0.2150907262898372 -0.08779407526362122
 0.2150907262898372 -0.08779407526362122 0.0 0.0 0.0 0.0 0.0 0.0
 0.0 0.0 0.2150907262898372 -0.08779407526362122 0.0 0.0 0.0 0.0
8.715419 0.0 0.0 0.0 0.0 0.19753902382759925 -0.12138475536185393 0.0 0.0
 0.0 0.0 0.0 0.0 0.0 0.0 0.19753902382759925 -0.12138475536185393
 0.19753902382759925 -0.12138475536185393 0.0 0.0 0.0 0.0 0.0 0.0
 0.0 0.0 0.19753902382759925 -0.12138475536185393 0.0 0.0 0.0 0.0
8.730418 0.0 0.0 0.0 0.0 0.1748001271977075 -0.1516108495502052 0.0 0.0
 0.0 0.0 0.0 0.0 0.0 0.0 0.1748001271977075 -0.1516108495502052
 0.1748001271977075 -0.1516108495502052 0.0 0.0 0.0 0.0 0.0 0.0
 0.0 0.0 0.1748001271977075 -0.1516108495502052 0.0 0.0 0.0 0.0
8.745417 0.0 0.0 0.0 0.0 0.14749981360408937 -0.17768131388519345 0.0 0.0
 0.0 0.0 0.0 0.0 0.0 0.0 0.14749981360408937 -0.17768131388519345
 0.14749981360408937 -0.17768131388519345 0.0 0.0 0.0 0.0 0.0 0.0
 0.0 0.0 0.14749981360408937 -0.17768131388519345 0.0 0.0 0.0 0.0
8.760416 0.0 0.0 0.0 0.0 0.11638277617461665 -0.1989188290983718 0.0 0.0
 0.0 0.0 0.0 0.0 0.0 0.0 0.11638277617461665 -0.1989188290983718
 0.11638277617461665 -0.1989188290983718 0.0 0.0 0.0 0.0 0.0 0.0
 0.0 0.0 0.11638277617461665 -0.1989188290983718 0.0 0.0 0.0 0.0
8.775415 0.0 0.0 0.0 0.0 0.08229233709634527 -0.2147773775838319 0.0 0.0
 0.0 0.0 0.0 0.0 0.0 0.0 0.08229233709634527 -0.2147773775838319
 0.08229233709634527 -0.2147773775838319 0.0 0.0 0.0 0.0 0.0 0.0
 0.0 0.0 0.08229233709634527 -0.2147773775838319 0.0 0.0 0.0 0.0
8.790414 0.0 0.0 0.0 0.0 0.04614761562889575 -0.22485625718993854 0.0 0.0
 0.0 0.0 0.0 0.0 0.0 0.0 0.04614761562889575 -0.22485625718993854
 0.04614761562889575 -0.22485625718993854 0.0 0.0 0.0 0.0 0.0 0.0
 0.0 0.0 0.04614761562889575 -0.22485625718993854 0.0 0.0 0.0 0.0
8.805413 0.0 0.0 0.0 0.0 0.008918768539136125 -0.22891017280555326 0.0 0.0
 0.0 0.0 0.0 0.0 0.0 0.0 0.008918768539136125 -0.22891017280555326
 0.008918768539136125 -0.22891017280555326 0.0 0.0 0.0 0.0 0.0 0.0
 0.0 0.0 0.008918768539136125 -0.22891017280555326 0.0 0.0 0.0 0.0
8.820412 0.0 0.0 0.0 0.0 -0.028399030606676916 -0.2268551525028291 0.0 0.0
 0.0 0.0 0.0 0.0 0.0 0.0 -0.028399030606676916 -0.2268551525028291
 -0.028399030606676916 -0.2268551525028291 0.0 0.0 0.0 0.0 0.0 0.0
 0.0 0.0 -0.028399030606676916 -0.2268551525028291 0.0 0.0 0.0 0.0
8.835411 0.0 0.0 0.0 0.0 -0.06481217588764479 -0.21877014709945292 0.0 0.0
 0.0 0.0 0.0 0.0 0.0 0.0 -0.06481217588764479 -0.21877014709945292
 -0.06481217588764479 -0.21877014709945292 0.0 0.0 0.0 0.0 0.0 0.0
 0.0 0.0 -0.06481217588764479 -0.21877014709945292 0.0 0.0 0.0 0.0
8.85041 0.0 0.0 0.0 0.0 -0.09935506751360139 -0.20489428742592428 0.0 0.0
 0.0 0.0 0.0 0.0 0.0 0.0 -0.09935506751360139 -0.20489428742592428
 -0.09935506751360139 -0.20489428742592428 0.0 0.0 0.0 0.0 0.0 0.0
 0.0 0.0 -0.09935506751360139 -0.20489428742592428 0.0 0.0 0.0 0.0
8.865409 0.0 0.0 0.0 0.0 -0.1311157012982351 -0.1856198892436565 0.0 0.0
 0.0 0.0 0.0 0.0 0.0 0.0 -0.1311157012982351 -0.1856198892436565
 -0.1311157012982351 -0.1856198892436565 0.0 0.0 0.0 0.0 0.0 0.0
 0.0 0.0 -0.1311157012982351 -0.1856198892436565 0.0 0.0 0.0 0.0
8.880408 0.0 0.0 0.0 0.0 -0.15925973139444155 -0.16148140857860552 0.0 0.0
 0.0 0.0 0.0 0.0 0.0 0.0 -0.15925973139444155 -0.16148140857860552
 -0.15925973139444155 -0.16148140857860552 0.0 0.0 0.0 0.0 0.0 0.0
 0.0 0.0 -0.15925973139444155 -0.16148140857860552 0.0 0.0 0.0 0.0
8.895407 0.0 0.0 0.0 0.0 -0.18305237183206655 -0.13314065722134322 0.0 0.0
 0.0 0.0 0.0 0.0 0.0 0.0 -0.18305237183206655 -0.13314065722134322
 -0.18305237183206655 -0.13314065722134322 0.0 0.0 0.0 0.0 0.0 0.0
 0.0 0.0 -0.18305237183206655 -0.13314065722134322 0.0 0.0 0.0 0.0
8.910406 0.0 0.0 0.0 0.0 -0.20187756238132398 -0.10136868647346702 0.0 0.0
 0.0 0.0 0.0 0.0 0.0 0.0 -0.20187756238132398 -0.10136868647346702
 -0.20187756238132398 -0.10136868647346702 0.0 0.0 0.0 0.0 0.0 0.0
 0.0 0.0 -0.20187756238132398 -0.10136868647346702 0.0 0.0 0.0 0.0
8.925405 0.0 0.0 0.0 0.0 -0.21525389930551633 -0.0670248343081818 0.0 0.0
 0.0 0.0 0.0 0.0 0.0 0.0 -0.21525389930551633 -0.0670248343081818
 -0.21525389930551633 -0.0670248343081818 0.0 0.0 0.0 0.0 0.0 0.0
 0.0 0.0 -0.21525389930551633 -0.0670248343081818 0.0 0.0 0.0 0.0
8.940404 0.0 0.0 0.0 0.0 -0.22284691960861472 -0.031033504685884845 0.0 0.0
 0.0 0.0 0.0 0.0 0.0 0.0 -0.22284691960861472 -0.031033504685884845
 -0.22284691960861472 -0.031033504685884845 0.0 0.0 0.0 0.0 0.0 0.0
 0.0 0.0 -0.22284691960861472 -0.031033504685884845 0.0 0.0 0.0 0.0
8.955403 0.0 0.0 0.0 0.0 -0.2244774260342122 0.005640694083061323 0.0 0.0
 0.0 0.0 0.0 0.0 0.0 0.0 -0.2244774260342122 0.005640694083061323
 -0.2244774260342122 0.005640694083061323 0.0 0.0 0.0 0.0 0.0 0.0
 0.0 0.0 -0.2244774260342122 0.005640694083061323 0.0 0.0 0.0 0.0
8.970402 0.0 0.0 0.0 0.0 -0.22012564666543388 0.04201878379391591 0.0 0.0
 0.0 0.0 0.0 0.0 0.0 0.0 -0.22012564666543388 0.04201878379391591
 -0.22012564666543388 0.04201878379391591 0.0 0.0 0.0 0.0 0.0 0.0
 0.0 0.0 -0.22012564666543388 0.04201878379391591 0.0 0.0 0.0 0.0
8.985401 0.0 0.0 0.0 0.0 -0.20993113464355104 0.0771335321874453 0.0 0.0
 0.0 0.0 0.0 0.0 0.0 0.0 -0.20993113464355104 0.0771335321874453
 -0.20993113464355104 0.0771335321874453 0.0 0.0 0.0 0.0 0.0 0.0
 0.0 0.0 -0.20993113464355104 0.0771335321874453 0.0 0.0 0.0 0.0
9.0004 0.0 0.0 0.0 0.0 -0.19418842727436209 0.11005515393326264 0.0 0.0
 0.0 0.0 0.0 0.0 0.0 0.0 -0.19418842727436209 0.11005515393326264
 -0.19418842727436209 0.11005515393326264 0.0 0.0 0.0 0.0 0.0 0.0
 0.0 0.0 -0.19418842727436209 0.11005515393326264 0.0 0.0 0.0 0.0
9.015399 0.0 0.0 0.0 0.0 -0.17333859659045212 0.13991591425936986 0.0 0.0
 0.0 0.0 0.0 0.0 0.0 0.0 -0.17333859659045212 0.13991591425936986
 -0.17333859659045212 0.13991591425936986 0.0 0.0 0.0 0.0 0.0 0.0
 0.0 0.0 -0.17333859659045212 0.13991591425936986 0.0 0.0 0.0 0.0
9.030398 0.0 0.0 0.0 0.0 -0.14795693228566767 0.16593298458682454 0.0 0.0
 0.0 0.0 0.0 0.0 0.0 0.0 -0.14795693228566767 0.16593298458682454
 -0.14795693228566767 0.16593298458682454 0.0 0.0 0.0 0.0 0.0 0.0
 0.0 0.0 -0.14795693228566767 0.16593298458682454 0.0 0.0 0.0 0.0
9.045397 0.0 0.0 0.0 0.0 -0.11873709995341133 0.18742894858036988 0.0 0.0
 0.0 0.0 0.0 0.0 0.0 0.0 -0.11873709995341133 0.18742894858036988
 -0.11873709995341133 0.18742894858036988 0.0 0.0 0.0 0.0 0.0 0.0
 0.0 0.0 -0.11873709995341133 0.18742894858036988 0.0 0.0 0.0 0.0
9.060396 0.0 0.0 0.0 0.0 -0.08647221005370381 0.20384942190118724 0.0 0.0
 0.0 0.0 0.0 0.0 0.0 0.0 -0.08647221005370381 0.20384942190118724
 -0.08647221005370381 0.20384942190118724 0.0 0.0 0.0 0.0 0.0 0.0
 0.0 0.0 -0.08647221005370381 0.20384942190118724 0.0 0.0 0.0 0.0
9.075395 0.0 0.0 0.0 0.0 -0.05203331358005675 0.21477732785935288 0.0 0.0
 0.0 0.0 0.0 0.0 0.0 0.0 -0.05203331358005675 0.21477732785935288
 -0.05203331358005675 0.21477732785935288 0.0 0.0 0.0 0.0 0.0 0.0
 0.0 0.0 -0.05203331358005675 0.21477732785935288 0.0 0.0 0.0 0.0
9.090394 0.0 0.0 0.0 0.0 -0.016345906897886193 0.21994346195669456 0.0 0.0
 0.0 0.0 0.0 0.0 0.0 0.0 -0.016345906897886193 0.21994346195669456
 -0.016345906897886193 0.21994346195669456 0.0 0.0 0.0 0.0 0.0 0.0
 0.0 0.0 -0.016345906897886193 0.21994346195669456 0.0 0.0 0.0 0.0
9.105393 0.0 0.0 0.0 0.0 0.01963492103474184 0.21923307852305576 0.0 0.0
 0.0 0.0 0.0 0.0 0.0 0.0 0.01963492103474184 0.21923307852305576
 0.01963492103474184 0.21923307852305576 0.0 0.0 0.0 0.0 0.0 0.0
 0.0 0.0 0.01963492103474184 0.21923307852305576 0.0 0.0 0.0 0.0
9.120392 0.0 0.0 0.0 0.0 0.0549500321656101 0.212688339576744 0.0 0.0
 0.0 0.0 0.0 0.0 0.0 0.0 0.0549500321656101 0.212688339576744
 0.0549500321656101 0.212688339576744 0.0 0.0 0.0 0.0 0.0 0.0
 0.0 0.0 0.0549500321656101 0.212688339576744 0.0 0.0 0.0 0.0
9.135391 0.0 0.0 0.0 0.0 0.0886617908631607 0.20050657681118333 0.0 0.0
 0.0 0.0 0.0 0.0 0.0 0.0 0.0886617908631607 0.20050657681118333
 0.0886617908631607 0.20050657681118333 0.0 0.0 0.0 0.0 0.0 0.0
 0.0 0.0 0.0886617908631607 0.20050657681118333 0.0 0.0 0.0 0.0
9.15039 0.0 0.0 0.0 0.0 0.11987894317501954 0.1830344292608693 0.0 0.0
 0.0 0.0 0.0 0.0 0.0 0.0 0.11987894317501954 0.1830344292608693
 0.11987894317501954 0.1830344292608693 0.0 0.0 0.0 0.0 0.0 0.0
 0.0 0.0 0.11987894317501954 0.1830344292608693 0.0 0.0 0.0 0.0
9.165389 0.0 0.0 0.0 0.0 0.14778016408832378 0.16075802875513012 0.0 0.0
 0.0 0.0 0.0 0.0 0.0 0.0 0.14778016408832378 0.16075802875513012
 0.14778016408832378 0.16075802875513012 0.0 0.0 0.0 0.0 0.0 0.0
 0.0 0.0 0.14778016408832378 0.16075802875513012 0.0 0.0 0.0 0.0
9.180388 0.0 0.0 0.0 0.0 0.17163565106471904 0.13428950981962803 0.0 0.0
 0.0 0.0 0.0 0.0 0.0 0.0 0.17163565106471904 0.13428950981962803
 0.17163565106471904 0.13428950981962803 0.0 0.0 0.0 0.0 0.0 0.0
 0.0 0.0 0.17163565106471904 0.13428950981962803 0.0 0.0 0.0 0.0
9.195387 0.0 0.0 0.0 0.0 0.1908261965431557 0.10435021746865379 0.0 0.0
 0.0 0.0 0.0 0.0 0.0 0.0 0.1908261965431557 0.10435021746865379
 0.1908261965431557 0.10435021746865379 0.0 0.0 0.0 0.0 0.0 0.0
 0.0 0.0 0.1908261965431557 0.10435021746865379 0.0 0.0 0.0 0.0
9.210386 0.0 0.0 0.0 0.0 0.20485924141703082 0.07175107279971306 0.0 0.0
 0.0 0.0 0.0 0.0 0.0 0.0 0.20485924141703082 0.07175107279971306
 0.20485924141703082 0.07175107279971306 0.0 0.0 0.0 0.0 0.0 0.0
 0.0 0.0 0.20485924141703082 0.07175107279971306 0.0 0.0 0.0 0.0
9.225385 0.0 0.0 0.0 0.0 0.21338149379707166 0.03737063019270806 0.0 0.0
 0.0 0.0 0.0 0.0 0.0 0.0 0.21338149379707166 0.03737063019270806
 0.21338149379707166 0.03737063019270806 0.0 0.0 0.0 0.0 0.0 0.0
 0.0 0.0 0.21338149379707166 0.03737063019270806 0.0 0.0 0.0 0.0
9.240384 0.0 0.0 0.0 0.0 0.21618779042597688 0.0021314193110222187 0.0 0.0
 0.0 0.0 0.0 0.0 0.0 0.0 0.21618779042597688 0.0021314193110222187
 0.21618779042597688 0.0021314193110222187 0.0 0.0 0.0 0.0 0.0 0.0
 0.0 0.0 0.21618779042597688 0.0021314193110222187 0.0 0.0 0.0 0.0
9.255383 0.0 0.0 0.0 0.0 0.21322597939726753 -0.03302479152566654 0.0 0.0
 0.0 0.0 0.0 0.0 0.0 0.0 0.21322597939726753 -0.03302479152566654
 0.21322597939726753 -0.03302479152566654 0.0 0.0 0.0 0.0 0.0 0.0
 0.0 0.0 0.21322597939726753 -0.03302479152566654 0.0 0.0 0.0 0.0
9.270382 0.0 0.0 0.0 0.0 0.20459770962031448 -0.06716214776931263 0.0 0.0
 0.0 0.0 0.0 0.0 0.0 0.0 0.20459770962031448 -0.06716214776931263
 0.20459770962031448 -0.06716214776931263 0.0 0.0 0.0 0.0 0.0 0.0
 0.0 0.0 0.20459770962031448 -0.06716214776931263 0.0 0.0 0.0 0.0
9.285381 0.0 0.0 0.0 0.0 0.1905551219022252 -0.09937560553607494 0.0 0.0
 0.0 0.0 0.0 0.0 0.0 0.0 0.1905551219022252 -0.09937560553607494
 0.1905551219022252 -0.09937560553607494 0.0 0.0 0.0 0.0 0.0 0.0
 0.0 0.0 0.1905551219022252 -0.09937560553607494 0.0 0.0 0.0 0.0
9.30038 0.0 0.0 0.0 0.0 0.17149354566144104 -0.12881491102588238 0.0 0.0
 0.0 0.0 0.0 0.0 0.0 0.0 0.17149354566144104 -0.12881491102588238
 0.17149354566144104 -0.12881491102588238 0.0 0.0 0.0 0.0 0.0 0.0
 0.0 0.0 0.17149354566144104 -0.12881491102588238 0.0 0.0 0.0 0.0
9.315379 0.0 0.0 0.0 0.0 0.14794041124256613 -0.15470702751865884 0.0 0.0
 0.0 0.0 0.0 0.0 0.0 0.0 0.14794041124256613 -0.15470702751865884
 0.14794041124256613 -0.15470702751865884 0.0 0.0 0.0 0.0 0.0 0.0
 0.0 0.0 0.14794041124256613 -0.15470702751865884 0.0 0.0 0.0 0.0
9.330378 0.0 0.0 0.0 0.0 0.12054068775851239 -0.17637641878625265 0.0 0.0
 0.0 0.0 0.0 0.0 0.0 0.0 0.12054068775851239 -0.17637641878625265
 0.12054068775851239 -0.17637641878625265 0.0 0.0 0.0 0.0 0.0 0.0
 0.0 0.0 0.12054068775851239 -0.17637641878625265 0.0 0.0 0.0 0.0
9.345377 0.0 0.0 0.0 0.0 0.09003924770558197 -0.1932626571213768 0.0 0.0
 0.0 0.0 0.0 0.0 0.0 0.0 0.09003924770558197 -0.1932626571213768
 0.09003924770558197 -0.1932626571213768 0.0 0.0 0.0 0.0 0.0 0.0
 0.0 0.0 0.09003924770558197 -0.1932626571213768 0.0 0.0 0.0 0.0
9.360376 0.0 0.0 0.0 0.0 0.05726063988174229 -0.2049348974786657 0.0 0.0
 0.0 0.0 0.0 0.0 0.0 0.0 0.05726063988174229 -0.2049348974786657
 0.05726063988174229 -0.2049348974786657 0.0 0.0 0.0 0.0 0.0 0.0
 0.0 0.0 0.05726063988174229 -0.2049348974786657 0.0 0.0 0.0 0.0
9.375375 0.0 0.0 0.0 0.0 0.02308681929196169 -0.2111028444443434 0.0 0.0
 0.0 0.0 0.0 0.0 0.0 0.0 0.02308681929196169 -0.2111028444443434
 0.02308681929196169 -0.2111028444443434 0.0 0.0 0.0 0.0 0.0 0.0
 0.0 0.0 0.02308681929196169 -0.2111028444443434 0.0 0.0 0.0 0.0
9.390374 0.0 0.0 0.0 0.0 -0.011566564990155393 -0.21162393358438367 0.0 0.0
 0.0 0.0 0.0 0.0 0.0 0.0 -0.011566564990155393 -0.21162393358438367
 -0.011566564990155393 -0.21162393358438367 0.0 0.0 0.0 0.0 0.0 0.0
 0.0 0.0 -0.011566564990155393 -0.21162393358438367 0.0 0.0 0.0 0.0
9.405373 0.0 0.0 0.0 0.0 -0.04577468695413576 -0.20650655060496456 0.0 0.0
 0.0 0.0 0.0 0.0 0.0 0.0 -0.04577468695413576 -0.20650655060496456
 -0.04577468695413576 -0.20650655060496456 0.0 0.0 0.0 0.0 0.0 0.0
 0.0 0.0 -0.04577468695413576 -0.20650655060496456 0.0 0.0 0.0 0.0
9.420372 0.0 0.0 0.0 0.0 -0.07862820974882502 -0.19590921795311672 0.0 0.0
 0.0 0.0 0.0 0.0 0.0 0.0 -0.07862820974882502 -0.19590921795311672
 -0.07862820974882502 -0.19590921795311672 0.0 0.0 0.0 0.0 0.0 0.0
 0.0 0.0 -0.07862820974882502 -0.19590921795311672 0.0 0.0 0.0 0.0
9.435371 0.0 0.0 0.0 0.0 -0.109257443278282 -0.18013578614569617 0.0 0.0
 0.0 0.0 0.0 0.0 0.0 0.0 -0.109257443278282 -0.18013578614569617
 -0.109257443278282 -0.18013578614569617 0.0 0.0 0.0 0.0 0.0 0.0
 0.0 0.0 -0.109257443278282 -0.18013578614569617 0.0 0.0 0.0 0.0
9.45037 0.0 0.0 0.0 0.0 -0.13685535191061074 -0.1596267733685587 0.0 0.0
 0.0 0.0 0.0 0.0 0.0 0.0 -0.13685535191061074 -0.1596267733685587
 -0.13685535191061074 -0.1596267733685587 0.0 0.0 0.0 0.0 0.0 0.0
 0.0 0.0 -0.13685535191061074 -0.1596267733685587 0.0 0.0 0.0 0.0
9.465369 0.0 0.0 0.0 0.0 -0.1606988040098615 -0.13494709891084838 0.0 0.0
 0.0 0.0 0.0 0.0 0.0 0.0 -0.1606988040098615 -0.13494709891084838
 -0.1606988040098615 -0.13494709891084838 0.0 0.0 0.0 0.0 0.0 0.0
 0.0 0.0 -0.1606988040098615 -0.13494709891084838 0.0 0.0 0.0 0.0
9.480368 0.0 0.0 0.0 0.0 -0.18016750417001645 -0.10677055109117889 0.0 0.0
 0.0 0.0 0.0 0.0 0.0 0.0 -0.18016750417001645 -0.10677055109117889
 -0.18016750417001645 -0.10677055109117889 0.0 0.0 0.0 0.0 0.0 0.0
 0.0 0.0 -0.18016750417001645 -0.10677055109117889 0.0 0.0 0.0 0.0
9.495367 0.0 0.0 0.0 0.0 -0.19476011290081954 -0.07586141598693527 0.0 0.0
 0.0 0.0 0.0 0.0 0.0 0.0 -0.19476011290081954 -0.07586141598693527
 -0.19476011290081954 -0.07586141598693527 0.0 0.0 0.0 0.0 0.0 0.0
 0.0 0.0 -0.19476011290081954 -0.07586141598693527 0.0 0.0 0.0 0.0
9.510366 0.0 0.0 0.0 0.0 -0.20410713533000266 -0.04305376725031915 0.0 0.0
 0.0 0.0 0.0 0.0 0.0 0.0 -0.20410713533000266 -0.04305376725031915
 -0.20410713533000266 -0.04305376725031915 0.0 0.0 0.0 0.0 0.0 0.0
 0.0 0.0 -0.20410713533000266 -0.04305376725031915 0.0 0.0 0.0 0.0
9.525365 0.0 0.0 0.0 0.0 -0.2079802481506477 -0.009228977659476563 0.0 0.0
 0.0 0.0 0.0 0.0 0.0 0.0 -0.2079802481506477 -0.009228977659476563
 -0.2079802481506477 -0.009228977659476563 0.0 0.0 0.0 0.0 0.0 0.0
 0.0 0.0 -0.2079802481506477 -0.009228977659476563 0.0 0.0 0.0 0.0
9.540364 0.0 0.0 0.0 0.0 -0.2062978301796456 0.024707941745673572 0.0 0.0
 0.0 0.0 0.0 0.0 0.0 0.0 -0.2062978301796456 0.024707941745673572
 -0.2062978301796456 0.024707941745673572 0.0 0.0 0.0 0.0 0.0 0.0
 0.0 0.0 -0.2062978301796456 0.024707941745673572 0.0 0.0 0.0 0.0
9.555363 0.0 0.0 0.0 0.0 -0.19912656391071554 0.05785254020070931 0.0 0.0
 0.0 0.0 0.0 0.0 0.0 0.0 -0.19912656391071554 0.05785254020070931
 -0.19912656391071554 0.05785254020070931 0.0 0.0 0.0 0.0 0.0 0.0
 0.0 0.0 -0.19912656391071554 0.05785254020070931 0.0 0.0 0.0 0.0
9.570362 0.0 0.0 0.0 0.0 -0.1866790806039307 0.0893250168095626 0.0 0.0
 0.0 0.0 0.0 0.0 0.0 0.0 -0.1866790806039307 0.0893250168095626
 -0.1866790806039307 0.0893250168095626 0.0 0.0 0.0 0.0 0.0 0.0
 0.0 0.0 -0.1866790806039307 0.0893250168095626 0.0 0.0 0.0 0.0
9.585361 0.0 0.0 0.0 0.0 -0.1693077269402196 0.11829355996685191 0.0 0.0
 0.0 0.0 0.0 0.0 0.0 0.0 -0.1693077269402196 0.11829355996685191
 -0.1693077269402196 0.11829355996685191 0.0 0.0 0.0 0.0 0.0 0.0
 0.0 0.0 -0.1693077269402196 0.11829355996685191 0.0 0.0 0.0 0.0
9.60036 0.0 0.0 0.0 0.0 -0.14749463427314116 0.1439963178343027 0.0 0.0
 0.0 0.0 0.0 0.0 0.0 0.0 -0.14749463427314116 0.1439963178343027
 -0.14749463427314116 0.1439963178343027 0.0 0.0 0.0 0.0 0.0 0.0
 0.0 0.0 -0.14749463427314116 0.1439963178343027 0.0 0.0 0.0 0.0
9.615359 0.0 0.0 0.0 0.0 -0.1218383692976013 0.16576141994080631 0.0 0.0
 0.0 0.0 0.0 0.0 0.0 0.0 -0.1218383692976013 0.16576141994080631
 -0.1218383692976013 0.16576141994080631 0.0 0.0 0.0 0.0 0.0 0.0
 0.0 0.0 -0.1218383692976013 0.16576141994080631 0.0 0.0 0.0 0.0
9.630358 0.0 0.0 0.0 0.0 -0.09303753494099899 0.18302452411945302 0.0 0.0
 0.0 0.0 0.0 0.0 0.0 0.0 -0.09303753494099899 0.18302452411945302
 -0.09303753494099899 0.18302452411945302 0.0 0.0 0.0 0.0 0.0 0.0
 0.0 0.0 -0.09303753494099899 0.18302452411945302 0.0 0.0 0.0 0.0
9.645357 0.0 0.0 0.0 0.0 -0.06187177009999804 0.19534343093558446 0.0 0.0
 0.0 0.0 0.0 0.0 0.0 0.0 -0.06187177009999804 0.19534343093558446
 -0.06187177009999804 0.19534343093558446 0.0 0.0 0.0 0.0 0.0 0.0
 0.0 0.0 -0.06187177009999804 0.19534343093558446 0.0 0.0 0.0 0.0
9.660356 0.0 0.0 0.0 0.0 -0.029180664408027104 0.20240938763622068 0.0 0.0
 0.0 0.0 0.0 0.0 0.0 0.0 -0.029180664408027104 0.20240938763622068
 -0.029180664408027104 0.20240938763622068 0.0 0.0 0.0 0.0 0.0 0.0
 0.0 0.0 -0.029180664408027104 0.20240938763622068 0.0 0.0 0.0 0.0
9.675355 0.0 0.0 0.0 0.0 0.0041588422276742105 0.2040547932894229 0.0 0.0
 0.0 0.0 0.0 0.0 0.0 0.0 0.0041588422276742105 0.2040547932894229
 0.0041588422276742105 0.2040547932894229 0.0 0.0 0.0 0.0 0.0 0.0
 0.0 0.0 0.0041588422276742105 0.2040547932894229 0.0 0.0 0.0 0.0
9.690354 0.0 0.0 0.0 0.0 0.03725596740897146 0.20025711375776598 0.0 0.0
 0.0 0.0 0.0 0.0 0.0 0.0 0.03725596740897146 0.20025711375776598
 0.03725596740897146 0.20025711375776598 0.0 0.0 0.0 0.0 0.0 0.0
 0.0 0.0 0.03725596740897146 0.20025711375776598 0.0 0.0 0.0 0.0
9.705353 0.0 0.0 0.0 0.0 0.06922987160652468 0.19113891685159035 0.0 0.0
 0.0 0.0 0.0 0.0 0.0 0.0 0.06922987160652468 0.19113891685159035
 0.06922987160652468 0.19113891685159035 0.0 0.0 0.0 0.0 0.0 0.0
 0.0 0.0 0.06922987160652468 0.19113891685159035 0.0 0.0 0.0 0.0
9.720352 0.0 0.0 0.0 0.0 0.09923308638032348 0.1769640417083459 0.0 0.0
 0.0 0.0 0.0 0.0 0.0 0.0 0.09923308638032348 0.1769640417083459
 0.09923308638032348 0.1769640417083459 0.0 0.0 0.0 0.0 0.0 0.0
 0.0 0.0 0.09923308638032348 0.1769640417083459 0.0 0.0 0.0 0.0
9.735351 0.0 0.0 0.0 0.0 0.12647396269878794 0.15813001937381665 0.0 0.0
 0.0 0.0 0.0 0.0 0.0 0.0 0.12647396269878794 0.15813001937381665
 0.12647396269878794 0.15813001937381665 0.0 0.0 0.0 0.0 0.0 0.0
 0.0 0.0 0.12647396269878794 0.15813001937381665 0.0 0.0 0.0 0.0
9.75035 0.0 0.0 0.0 0.0 0.15023754509288514 0.13515696098043448 0.0 0.0
 0.0 0.0 0.0 0.0 0.0 0.0 0.15023754509288514 0.13515696098043448
 0.15023754509288514 0.13515696098043448 0.0 0.0 0.0 0.0 0.0 0.0
 0.0 0.0 0.15023754509288514 0.13515696098043448 0.0 0.0 0.0 0.0
9.765349 0.0 0.0 0.0 0.0 0.1699043216019417 0.10867322319236417 0.0 0.0
 0.0 0.0 0.0 0.0 0.0 0.0 0.1699043216019417 0.10867322319236417
 0.1699043216019417 0.10867322319236417 0.0 0.0 0.0 0.0 0.0 0.0
 0.0 0.0 0.1699043216019417 0.10867322319236417 0.0 0.0 0.0 0.0
9.780348 0.0 0.0 0.0 0.0 0.18496635817300075 0.07939824525467033 0.0 0.0
 0.0 0.0 0.0 0.0 0.0 0.0 0.18496635817300075 0.07939824525467033
 0.18496635817300075 0.07939824525467033 0.0 0.0 0.0 0.0 0.0 0.0
 0.0 0.0 0.18496635817300075 0.07939824525467033 0.0 0.0 0.0 0.0
9.795347 0.0 0.0 0.0 0.0 0.1950403977453236 0.04812302582253265 0.0 0.0
 0.0 0.0 0.0 0.0 0.0 0.0 0.1950403977453236 0.04812302582253265
 0.1950403977453236 0.04812302582253265 0.0 0.0 0.0 0.0 0.0 0.0
 0.0 0.0 0.1950403977453236 0.04812302582253265 0.0 0.0 0.0 0.0
9.810346 0.0 0.0 0.0 0.0 0.19987758673138942 0.015688768829694222 0.0 0.0
 0.0 0.0 0.0 0.0 0.0 0.0 0.19987758673138942 0.015688768829694222
 0.19987758673138942 0.015688768829694222 0.0 0.0 0.0 0.0 0.0 0.0
 0.0 0.0 0.19987758673138942 0.015688768829694222 0.0 0.0 0.0 0.0
9.825345 0.0 0.0 0.0 0.0 0.19936958275602634 -0.017035725595431848 0.0 0.0
 0.0 0.0 0.0 0.0 0.0 0.0 0.19936958275602634 -0.017035725595431848
 0.19936958275602634 -0.017035725595431848 0.0 0.0 0.0 0.0 0.0 0.0
 0.0 0.0 0.19936958275602634 -0.017035725595431848 0.0 0.0 0.0 0.0
9.840344 0.0 0.0 0.0 0.0 0.19355089487486551 -0.049177317933165404 0.0 0.0
 0.0 0.0 0.0 0.0 0.0 0.0 0.19355089487486551 -0.049177317933165404
 0.19355089487486551 -0.049177317933165404 0.0 0.0 0.0 0.0 0.0 0.0
 0.0 0.0 0.19355089487486551 -0.049177317933165404 0.0 0.0 0.0 0.0
9.855343 0.0 0.0 0.0 0.0 0.18259740844476513 -0.07988181163598997 0.0 0.0
 0.0 0.0 0.0 0.0 0.0 0.0 0.18259740844476513 -0.07988181163598997
 0.18259740844476513 -0.07988181163598997 0.0 0.0 0.0 0.0 0.0 0.0
 0.0 0.0 0.18259740844476513 -0.07988181163598997 0.0 0.0 0.0 0.0
9.870342 0.0 0.0 0.0 0.0 0.16682114865881328 -0.10833664059944748 0.0 0.0
 0.0 0.0 0.0 0.0 0.0 0.0 0.16682114865881328 -0.10833664059944748
 0.16682114865881328 -0.10833664059944748 0.0 0.0 0.0 0.0 0.0 0.0
 0.0 0.0 0.16682114865881328 -0.10833664059944748 0.0 0.0 0.0 0.0
9.885341 0.0 0.0 0.0 0.0 0.1466614367703268 -0.13379235951936203 0.0 0.0
 0.0 0.0 0.0 0.0 0.0 0.0 0.1466614367703268 -0.13379235951936203
 0.1466614367703268 -0.13379235951936203 0.0 0.0 0.0 0.0 0.0 0.0
 0.0 0.0 0.1466614367703268 -0.13379235951936203 0.0 0.0 0.0 0.0
9.90034 0.0 0.0 0.0 0.0 0.12267268855621827 -0.15558236912190943 0.0 0.0
 0.0 0.0 0.0 0.0 0.0 0.0 0.12267268855621827 -0.15558236912190943
 0.12267268855621827 -0.15558236912190943 0.0 0.0 0.0 0.0 0.0 0.0
 0.0 0.0 0.12267268855621827 -0.15558236912190943 0.0 0.0 0.0 0.0
9.915339 0.0 0.0 0.0 0.0 0.09550919308202153 -0.17314035746464237 0.0 0.0
 0.0 0.0 0.0 0.0 0.0 0.0 0.09550919308202153 -0.17314035746464237
 0.09550919308202153 -0.17314035746464237 0.0 0.0 0.0 0.0 0.0 0.0
 0.0 0.0 0.09550919308202153 -0.17314035746464237 0.0 0.0 0.0 0.0
9.930338 0.0 0.0 0.0 0.0 0.06590728899704301 -0.18601500135385823 0.0 0.0
 0.0 0.0 0.0 0.0 0.0 0.0 0.06590728899704301 -0.18601500135385823
 0.06590728899704301 -0.18601500135385823 0.0 0.0 0.0 0.0 0.0 0.0
 0.0 0.0 0.06590728899704301 -0.18601500135385823 0.0 0.0 0.0 0.0
9.945337 0.0 0.0 0.0 0.0 0.03466542333486223 -0.19388154668020405 0.0 0.0
 0.0 0.0 0.0 0.0 0.0 0.0 0.03466542333486223 -0.19388154668020405
 0.03466542333486223 -0.19388154668020405 0.0 0.0 0.0 0.0 0.0 0.0
 0.0 0.0 0.03466542333486223 -0.19388154668020405 0.0 0.0 0.0 0.0
9.960336 0.0 0.0 0.0 0.0 0.002622632359585183 -0.19654997110324532 0.0 0.0
 0.0 0.0 0.0 0.0 0.0 0.0 0.002622632359585183 -0.19654997110324532
 0.002622632359585183 -0.19654997110324532 0.0 0.0 0.0 0.0 0.0 0.0
 0.0 0.0 0.002622632359585183 -0.19654997110324532 0.0 0.0 0.0 0.0
9.975335 0.0 0.0 0.0 0.0 -0.029363976021482094 -0.19396952472397722 0.0 0.0
 0.0 0.0 0.0 0.0 0.0 0.0 -0.029363976021482094 -0.19396952472397722
 -0.029363976021482094 -0.19396952472397722 0.0 0.0 0.0 0.0 0.0 0.0
 0.0 0.0 -0.029363976021482094 -0.19396952472397722 0.0 0.0 0.0 0.0
9.990334 0.0 0.0 0.0 0.0 -0.06044213437314709 -0.1862295416864511 0.0 0.0
 0.0 0.0 0.0 0.0 0.0 0.0 -0.06044213437314709 -0.1862295416864511
 -0.06044213437314709 -0.1862295416864511 0.0 0.0 0.0 0.0 0.0 0.0
 0.0 0.0 -0.06044213437314709 -0.1862295416864511 0.0 0.0 0.0 0.0
10.005333 0.0 0.0 0.0 0.0 -0.08978711027061309 -0.1735565154334803 0.0 0.0
 0.0 0.0 0.0 0.0 0.0 0.0 -0.08978711027061309 -0.1735565154334803
 -0.08978711027061309 -0.1735565154334803 0.0 0.0 0.0 0.0 0.0 0.0
 0.0 0.0 -0.08978711027061309 -0.1735565154334803 0.0 0.0 0.0 0.0
10.020332 0.0 0.0 0.0 0.0 -0.11662357929908197 -0.15630752993850522 0.0 0.0
 0.0 0.0 0.0 0.0 0.0 0.0 -0.11662357929908197 -0.15630752993850522
 -0.11662357929908197 -0.15630752993850522 0.0 0.0 0.0 0.0 0.0 0.0
 0.0 0.0 -0.11662357929908197 -0.15630752993850522 0.0 0.0 0.0 0.0
10.035331 0.0 0.0 0.0 0.0 -0.14024609676009073 -0.13496023599269302 0.0 0.0
 0.0 0.0 0.0 0.0 0.0 0.0 -0.14024609676009073 -0.13496023599269302
 -0.14024609676009073 -0.13496023599269302 0.0 0.0 0.0 0.0 0.0 0.0
 0.0 0.0 -0.14024609676009073 -0.13496023599269302 0.0 0.0 0.0 0.0
10.05033 0.0 0.0 0.0 0.0 -0.16003762789460918 -0.11009965297561472 0.0 0.0
 0.0 0.0 0.0 0.0 0.0 0.0 -0.16003762789460918 -0.11009965297561472
 -0.16003762789460918 -0.11009965297561472 0.0 0.0 0.0 0.0 0.0 0.0
 0.0 0.0 -0.16003762789460918 -0.11009965297561472 0.0 0.0 0.0 0.0
10.065329 0.0 0.0 0.0 0.0 -0.17548565024239834 -0.08240216006578202 0.0 0.0
 0.0 0.0 0.0 0.0 0.0 0.0 -0.17548565024239834 -0.08240216006578202
 -0.17548565024239834 -0.08240216006578202 0.0 0.0 0.0 0.0 0.0 0.0
 0.0 0.0 -0.17548565024239834 -0.08240216006578202 0.0 0.0 0.0 0.0
10.080328 0.0 0.0 0.0 0.0 -0.1861954083239451 -0.052617114357040314 0.0 0.0
 0.0 0.0 0.0 0.0 0.0 0.0 -0.1861954083239451 -0.052617114357040314
 -0.1861954083239451 -0.052617114357040314 0.0 0.0 0.0 0.0 0.0 0.0
 0.0 0.0 -0.1861954083239451 -0.052617114357040314 0.0 0.0 0.0 0.0
10.095327 0.0 0.0 0.0 0.0 -0.19189997833209946 -0.021546594918271558 0.0 0.0
 0.0 0.0 0.0 0.0 0.0 0.0 -0.19189997833209946 -0.021546594918271558
 -0.19189997833209946 -0.021546594918271558 0.0 0.0 0.0 0.0 0.0 0.0
 0.0 0.0 -0.19189997833209946 -0.021546594918271558 0.0 0.0 0.0 0.0
10.110326 0.0 0.0 0.0 0.0 -0.19246688684954347 0.009976180129702241 0.0 0.0
 0.0 0.0 0.0 0.0 0.0 0.0 -0.19246688684954347 0.009976180129702241
 -0.19246688684954347 0.009976180129702241 0.0 0.0 0.0 0.0 0.0 0.0
 0.0 0.0 -0.19246688684954347 0.009976180129702241 0.0 0.0 0.0 0.0
10.125325 0.0 0.0 0.0 0.0 -0.18790112043030793 0.04110918317250872 0.0 0.0
 0.0 0.0 0.0 0.0 0.0 0.0 -0.18790112043030793 0.04110918317250872
 -0.18790112043030793 0.04110918317250872 0.0 0.0 0.0 0.0 0.0 0.0
 0.0 0.0 -0.18790112043030793 0.04110918317250872 0.0 0.0 0.0 0.0
10.140324 0.0 0.0 0.0 0.0 -0.17834445970088092 0.07102405526917131 0.0 0.0
 0.0 0.0 0.0 0.0 0.0 0.0 -0.17834445970088092 0.07102405526917131
 -0.17834445970088092 0.07102405526917131 0.0 0.0 0.0 0.0 0.0 0.0
 0.0 0.0 -0.17834445970088092 0.07102405526917131 0.0 0.0 0.0 0.0
10.155323 0.0 0.0 0.0 0.0 -0.16407116985320197 0.09892813322780336 0.0 0.0
 0.0 0.0 0.0 0.0 0.0 0.0 -0.16407116985320197 0.09892813322780336
 -0.16407116985320197 0.09892813322780336 0.0 0.0 0.0 0.0 0.0 0.0
 0.0 0.0 -0.16407116985320197 0.09892813322780336 0.0 0.0 0.0 0.0
10.170322 0.0 0.0 0.0 0.0 -0.14548017639515798 0.1240854402071085 0.0 0.0
 0.0 0.0 0.0 0.0 0.0 0.0 -0.14548017639515798 0.1240854402071085
 -0.14548017639515798 0.1240854402071085 0.0 0.0 0.0 0.0 0.0 0.0
 0.0 0.0 -0.14548017639515798 0.1240854402071085 0.0 0.0 0.0 0.0
10.185321 0.0 0.0 0.0 0.0 -0.12308394821353735 0.1458360843257315 0.0 0.0
 0.0 0.0 0.0 0.0 0.0 0.0 -0.12308394821353735 0.1458360843257315
 -0.12308394821353735 0.1458360843257315 0.0 0.0 0.0 0.0 0.0 0.0
 0.0 0.0 -0.12308394821353735 0.1458360843257315 0.0 0.0 0.0 0.0
10.20032 0.0 0.0 0.0 0.0 -0.09749439692045388 0.16361355431930438 0.0 0.0
 0.0 0.0 0.0 0.0 0.0 0.0 -0.09749439692045388 0.16361355431930438
 -0.09749439692045388 0.16361355431930438 0.0 0.0 0.0 0.0 0.0 0.0
 0.0 0.0 -0.09749439692045388 0.16361355431930438 0.0 0.0 0.0 0.0
10.215319 0.0 0.0 0.0 0.0 -0.06940617980409126 0.1769594592927031 0.0 0.0
 0.0 0.0 0.0 0.0 0.0 0.0 -0.06940617980409126 0.1769594592927031
 -0.06940617980409126 0.1769594592927031 0.0 0.0 0.0 0.0 0.0 0.0
 0.0 0.0 -0.06940617980409126 0.1769594592927031 0.0 0.0 0.0 0.0
10.230318 0.0 0.0 0.0 0.0 -0.03957786143230303 0.18553532947528653 0.0 0.0
 0.0 0.0 0.0 0.0 0.0 0.0 -0.03957786143230303 0.18553532947528653
 -0.03957786143230303 0.18553532947528653 0.0 0.0 0.0 0.0 0.0 0.0
 0.0 0.0 -0.03957786143230303 0.18553532947528653 0.0 0.0 0.0 0.0
10.245317 0.0 0.0 0.0 0.0 -0.008811444298339938 0.1891311746927016 0.0 0.0
 0.0 0.0 0.0 0.0 0.0 0.0 -0.008811444298339938 0.1891311746927016
 -0.008811444298339938 0.1891311746927016 0.0 0.0 0.0 0.0 0.0 0.0
 0.0 0.0 -0.008811444298339938 0.1891311746927016 0.0 0.0 0.0 0.0
10.260316 0.0 0.0 0.0 0.0 0.02206917957673664 0.18767058485555863 0.0 0.0
 0.0 0.0 0.0 0.0 0.0 0.0 0.02206917957673664 0.18767058485555863
 0.02206917957673664 0.18767058485555863 0.0 0.0 0.0 0.0 0.0 0.0
 0.0 0.0 0.02206917957673664 0.18767058485555863 0.0 0.0 0.0 0.0
10.275315 0.0 0.0 0.0 0.0 0.05224027751503448 0.1812122497685433 0.0 0.0
 0.0 0.0 0.0 0.0 0.0 0.0 0.05224027751503448 0.1812122497685433
 0.05224027751503448 0.1812122497685433 0.0 0.0 0.0 0.0 0.0 0.0
 0.0 0.0 0.05224027751503448 0.1812122497685433 0.0 0.0 0.0 0.0
10.290314 0.0 0.0 0.0 0.0 0.08090023582480335 0.16994787148385151 0.0 0.0
 0.0 0.0 0.0 0.0 0.0 0.0 0.08090023582480335 0.16994787148385151
 0.08090023582480335 0.16994787148385151 0.0 0.0 0.0 0.0 0.0 0.0
 0.0 0.0 0.08090023582480335 0.16994787148385151 0.0 0.0 0.0 0.0
10.305313 0.0 0.0 0.0 0.0 0.10729084514506682 0.15419653869223723 0.0 0.0
 0.0 0.0 0.0 0.0 0.0 0.0 0.10729084514506682 0.15419653869223723
 0.10729084514506682 0.15419653869223723 0.0 0.0 0.0 0.0 0.0 0.0
 0.0 0.0 0.10729084514506682 0.15419653869223723 0.0 0.0 0.0 0.0
10.320312 0.0 0.0 0.0 0.0 0.13071734663110413 0.1343957266959313 0.0 0.0
 0.0 0.0 0.0 0.0 0.0 0.0 0.13071734663110413 0.1343957266959313
 0.13071734663110413 0.1343957266959313 0.0 0.0 0.0 0.0 0.0 0.0
 0.0 0.0 0.13071734663110413 0.1343957266959313 0.0 0.0 0.0 0.0
10.335311 0.0 0.0 0.0 0.0 0.15056670931137137 0.11108917584134614 0.0 0.0
 0.0 0.0 0.0 0.0 0.0 0.0 0.15056670931137137 0.11108917584134614
 0.15056670931137137 0.11108917584134614 0.0 0.0 0.0 0.0 0.0 0.0
 0.0 0.0 0.15056670931137137 0.11108917584134614 0.0 0.0 0.0 0.0
10.35031 0.0 0.0 0.0 0.0 0.1663236581239662 0.08491198354239257 0.0 0.0
 0.0 0.0 0.0 0.0 0.0 0.0 0.1663236581239662 0.08491198354239257
 0.1663236581239662 0.08491198354239257 0.0 0.0 0.0 0.0 0.0 0.0
 0.0 0.0 0.1663236581239662 0.08491198354239257 0.0 0.0 0.0 0.0
10.365309 0.0 0.0 0.0 0.0 0.17758403394123162 0.05657331803114514 0.0 0.0
 0.0 0.0 0.0 0.0 0.0 0.0 0.17758403394123162 0.05657331803114514
 0.17758403394123162 0.05657331803114514 0.0 0.0 0.0 0.0 0.0 0.0
 0.0 0.0 0.17758403394123162 0.05657331803114514 0.0 0.0 0.0 0.0
10.380308 0.0 0.0 0.0 0.0 0.18406513961862453 0.02683722382077423 0.0 0.0
 0.0 0.0 0.0 0.0 0.0 0.0 0.18406513961862453 0.02683722382077423
 0.18406513961862453 0.02683722382077423 0.0 0.0 0.0 0.0 0.0 0.0
 0.0 0.0 0.18406513961862453 0.02683722382077423 0.0 0.0 0.0 0.0
10.395307 0.0 0.0 0.0 0.0 0.18561280777909364 -0.0034979620514589633 0.0 0.0
 0.0 0.0 0.0 0.0 0.0 0.0 0.18561280777909364 -0.0034979620514589633
 0.18561280777909364 -0.0034979620514589633 0.0 0.0 0.0 0.0 0.0 0.0
 0.0 0.0 0.18561280777909364 -0.0034979620514589633 0.0 0.0 0.0 0.0
10.410306 0.0 0.0 0.0 0.0 0.18220501445485657 -0.0336210288747999 0.0 0.0
 0.0 0.0 0.0 0.0 0.0 0.0 0.18220501445485657 -0.0336210288747999
 0.18220501445485657 -0.0336210288747999 0.0 0.0 0.0 0.0 0.0 0.0
 0.0 0.0 0.18220501445485657 -0.0336210288747999 0.0 0.0 0.0 0.0
10.425305 0.0 0.0 0.0 0.0 0.17395195547284162 -0.06272957193176305 0.0 0.0
 0.0 0.0 0.0 0.0 0.0 0.0 0.17395195547284162 -0.06272957193176305
 0.17395195547284162 -0.06272957193176305 0.0 0.0 0.0 0.0 0.0 0.0
 0.0 0.0 0.17395195547284162 -0.06272957193176305 0.0 0.0 0.0 0.0
10.440304 0.0 0.0 0.0 0.0 0.161092597098013 -0.09005135393939004 0.0 0.0
 0.0 0.0 0.0 0.0 0.0 0.0 0.161092597098013 -0.09005135393939004
 0.161092597098013 -0.09005135393939004 0.0 0.0 0.0 0.0 0.0 0.0
 0.0 0.0 0.161092597098013 -0.09005135393939004 0.0 0.0 0.0 0.0
10.455303 0.0 0.0 0.0 0.0 0.14398780641066308 -0.1148647799163276 0.0 0.0
 0.0 0.0 0.0 0.0 0.0 0.0 0.14398780641066308 -0.1148647799163276
 0.14398780641066308 -0.1148647799163276 0.0 0.0 0.0 0.0 0.0 0.0
 0.0 0.0 0.14398780641066308 -0.1148647799163276 0.0 0.0 0.0 0.0
10.470302 0.0 0.0 0.0 0.0 0.12311025768678605 -0.13651794293241168 0.0 0.0
 0.0 0.0 0.0 0.0 0.0 0.0 0.12311025768678605 -0.13651794293241168
 0.12311025768678605 -0.13651794293241168 0.0 0.0 0.0 0.0 0.0 0.0
 0.0 0.0 0.12311025768678605 -0.13651794293241168 0.0 0.0 0.0 0.0
10.485301 0.0 0.0 0.0 0.0 0.09903139626599027 -0.15444573837117917 0.0 0.0
 0.0 0.0 0.0 0.0 0.0 0.0 0.09903139626599027 -0.15444573837117917
 0.09903139626599027 -0.15444573837117917 0.0 0.0 0.0 0.0 0.0 0.0
 0.0 0.0 0.09903139626599027 -0.15444573837117917 0.0 0.0 0.0 0.0
10.5003 0.0 0.0 0.0 0.0 0.07240581877819409 -0.16818459775167127 0.0 0.0
 0.0 0.0 0.0 0.0 0.0 0.0 0.07240581877819409 -0.16818459775167127
 0.07240581877819409 -0.16818459775167127 0.0 0.0 0.0 0.0 0.0 0.0
 0.0 0.0 0.07240581877819409 -0.16818459775167127 0.0 0.0 0.0 0.0
10.515299 0.0 0.0 0.0 0.0 0.04395349612456802 -0.17738445834025343 0.0 0.0
 0.0 0.0 0.0 0.0 0.0 0.0 0.04395349612456802 -0.17738445834025343
 0.04395349612456802 -0.17738445834025343 0.0 0.0 0.0 0.0 0.0 0.0
 0.0 0.0 0.04395349612456802 -0.17738445834025343 0.0 0.0 0.0 0.0
10.530298 0.0 0.0 0.0 0.0 0.014440321506885586 -0.1818176599531855 0.0 0.0
 0.0 0.0 0.0 0.0 0.0 0.0 0.014440321506885586 -0.1818176599531855
 0.014440321506885586 -0.1818176599531855 0.0 0.0 0.0 0.0 0.0 0.0
 0.0 0.0 0.014440321506885586 -0.1818176599531855 0.0 0.0 0.0 0.0
10.545297 0.0 0.0 0.0 0.0 -0.015342491374415419 -0.18138454346454558 0.0 0.0
 0.0 0.0 0.0 0.0 0.0 0.0 -0.015342491374415419 -0.18138454346454558
 -0.015342491374415419 -0.18138454346454558 0.0 0.0 0.0 0.0 0.0 0.0
 0.0 0.0 -0.015342491374415419 -0.18138454346454558 0.0 0.0 0.0 0.0
10.560296 0.0 0.0 0.0 0.0 -0.044599606171601476 -0.17611561434535558 0.0 0.0
 0.0 0.0 0.0 0.0 0.0 0.0 -0.044599606171601476 -0.17611561434535558
 -0.044599606171601476 -0.17611561434535558 0.0 0.0 0.0 0.0 0.0 0.0
 0.0 0.0 -0.044599606171601476 -0.17611561434535558 0.0 0.0 0.0 0.0
10.575295 0.0 0.0 0.0 0.0 -0.07255279022299997 -0.1661702266790147 0.0 0.0
 0.0 0.0 0.0 0.0 0.0 0.0 -0.07255279022299997 -0.1661702266790147
 -0.07255279022299997 -0.1661702266790147 0.0 0.0 0.0 0.0 0.0 0.0
 0.0 0.0 -0.07255279022299997 -0.1661702266790147 0.0 0.0 0.0 0.0
10.590294 0.0 0.0 0.0 0.0 -0.09846160320239247 -0.15183183605631348 0.0 0.0
 0.0 0.0 0.0 0.0 0.0 0.0 -0.09846160320239247 -0.15183183605631348
 -0.09846160320239247 -0.15183183605631348 0.0 0.0 0.0 0.0 0.0 0.0
 0.0 0.0 -0.09846160320239247 -0.15183183605631348 0.0 0.0 0.0 0.0
10.605293 0.0 0.0 0.0 0.0 -0.12164299841266246 -0.13349996106840076 0.0 0.0
 0.0 0.0 0.0 0.0 0.0 0.0 -0.12164299841266246 -0.13349996106840076
 -0.12164299841266246 -0.13349996106840076 0.0 0.0 0.0 0.0 0.0 0.0
 0.0 0.0 -0.12164299841266246 -0.13349996106840076 0.0 0.0 0.0 0.0
10.620292 0.0 0.0 0.0 0.0 -0.14148931814161614 -0.11167908035935789 0.0 0.0
 0.0 0.0 0.0 0.0 0.0 0.0 -0.14148931814161614 -0.11167908035935789
 -0.14148931814161614 -0.11167908035935789 0.0 0.0 0.0 0.0 0.0 0.0
 0.0 0.0 -0.14148931814161614 -0.11167908035935789 0.0 0.0 0.0 0.0
10.635291 0.0 0.0 0.0 0.0 -0.15748420929954943 -0.08696477306016143 0.0 0.0
 0.0 0.0 0.0 0.0 0.0 0.0 -0.15748420929954943 -0.08696477306016143
 -0.15748420929954943 -0.08696477306016143 0.0 0.0 0.0 0.0 0.0 0.0
 0.0 0.0 -0.15748420929954943 -0.08696477306016143 0.0 0.0 0.0 0.0
10.65029 0.0 0.0 0.0 0.0 -0.16921604282485445 -0.06002748277054921 0.0 0.0
 0.0 0.0 0.0 0.0 0.0 0.0 -0.16921604282485445 -0.06002748277054921
 -0.16921604282485445 -0.06002748277054921 0.0 0.0 0.0 0.0 0.0 0.0
 0.0 0.0 -0.16921604282485445 -0.06002748277054921 0.0 0.0 0.0 0.0
10.665289 0.0 0.0 0.0 0.0 -0.1763884885016153 -0.03159434718770067 0.0 0.0
 0.0 0.0 0.0 0.0 0.0 0.0 -0.1763884885016153 -0.03159434718770067
 -0.1763884885016153 -0.03159434718770067 0.0 0.0 0.0 0.0 0.0 0.0
 0.0 0.0 -0.1763884885016153 -0.03159434718770067 0.0 0.0 0.0 0.0
10.680288 0.0 0.0 0.0 0.0 -0.17882797402338982 -0.0024295853877014427 0.0 0.0
 0.0 0.0 0.0 0.0 0.0 0.0 -0.17882797402338982 -0.0024295853877014427
 -0.17882797402338982 -0.0024295853877014427 0.0 0.0 0.0 0.0 0.0 0.0
 0.0 0.0 -0.17882797402338982 -0.0024295853877014427 0.0 0.0 0.0 0.0
10.695287 0.0 0.0 0.0 0.0 -0.17648784126700354 0.026686028637418393 0.0 0.0
 0.0 0.0 0.0 0.0 0.0 0.0 -0.17648784126700354 0.026686028637418393
 -0.17648784126700354 0.026686028637418393 0.0 0.0 0.0 0.0 0.0 0.0
 0.0 0.0 -0.17648784126700354 0.026686028637418393 0.0 0.0 0.0 0.0
10.710286 0.0 0.0 0.0 0.0 -0.16944910153984086 0.05497605522418525 0.0 0.0
 0.0 0.0 0.0 0.0 0.0 0.0 -0.16944910153984086 0.05497605522418525
 -0.16944910153984086 0.05497605522418525 0.0 0.0 0.0 0.0 0.0 0.0
 0.0 0.0 -0.16944910153984086 0.05497605522418525 0.0 0.0 0.0 0.0
10.725285 0.0 0.0 0.0 0.0 -0.15791778264764117 0.08168908251992454 0.0 0.0
 0.0 0.0 0.0 0.0 0.0 0.0 -0.15791778264764117 0.08168908251992454
 -0.15791778264764117 0.08168908251992454 0.0 0.0 0.0 0.0 0.0 0.0
 0.0 0.0 -0.15791778264764117 0.08168908251992454 0.0 0.0 0.0 0.0
10.740284 0.0 0.0 0.0 0.0 -0.14221895155944544 0.10611867300360334 0.0 0.0
 0.0 0.0 0.0 0.0 0.0 0.0 -0.14221895155944544 0.10611867300360334
 -0.14221895155944544 0.10611867300360334 0.0 0.0 0.0 0.0 0.0 0.0
 0.0 0.0 -0.14221895155944544 0.10611867300360334 0.0 0.0 0.0 0.0
10.755283 0.0 0.0 0.0 0.0 -0.12278758479747952 0.12762203386460352 0.0 0.0
 0.0 0.0 0.0 0.0 0.0 0.0 -0.12278758479747952 0.12762203386460352
 -0.12278758479747952 0.12762203386460352 0.0 0.0 0.0 0.0 0.0 0.0
 0.0 0.0 -0.12278758479747952 0.12762203386460352 0.0 0.0 0.0 0.0
10.770282 0.0 0.0 0.0 0.0 -0.10015654210564295 0.1456369181081705 0.0 0.0
 0.0 0.0 0.0 0.0 0.0 0.0 -0.10015654210564295 0.1456369181081705
 -0.10015654210564295 0.1456369181081705 0.0 0.0 0.0 0.0 0.0 0.0
 0.0 0.0 -0.10015654210564295 0.1456369181081705 0.0 0.0 0.0 0.0
10.785281 0.0 0.0 0.0 0.0 -0.07494197524426788 0.15969631232259784 0.0 0.0
 0.0 0.0 0.0 0.0 0.0 0.0 -0.07494197524426788 0.15969631232259784
 -0.07494197524426788 0.15969631232259784 0.0 0.0 0.0 0.0 0.0 0.0
 0.0 0.0 -0.07494197524426788 0.15969631232259784 0.0 0.0 0.0 0.0
10.80028 0.0 0.0 0.0 0.0 -0.04782657091289492 0.16944052776843244 0.0 0.0
 0.0 0.0 0.0 0.0 0.0 0.0 -0.04782657091289492 0.16944052776843244
 -0.04782657091289492 0.16944052776843244 0.0 0.0 0.0 0.0 0.0 0.0
 0.0 0.0 -0.04782657091289492 0.16944052776843244 0.0 0.0 0.0 0.0
10.815279 0.0 0.0 0.0 0.0 -0.019541083060151072 0.17462638217072637 0.0 0.0
 0.0 0.0 0.0 0.0 0.0 0.0 -0.019541083060151072 0.17462638217072637
 -0.019541083060151072 0.17462638217072637 0.0 0.0 0.0 0.0 0.0 0.0
 0.0 0.0 -0.019541083060151072 0.17462638217072637 0.0 0.0 0.0 0.0
10.830278 0.0 0.0 0.0 0.0 0.009155346259197297 0.1751332383875682 0.0 0.0
 0.0 0.0 0.0 0.0 0.0 0.0 0.009155346259197297 0.1751332383875682
 0.009155346259197297 0.1751332383875682 0.0 0.0 0.0 0.0 0.0 0.0
 0.0 0.0 0.009155346259197297 0.1751332383875682 0.0 0.0 0.0 0.0
10.845277 0.0 0.0 0.0 0.0 0.037495547899869766 0.17096575085969598 0.0 0.0
 0.0 0.0 0.0 0.0 0.0 0.0 0.037495547899869766 0.17096575085969598
 0.037495547899869766 0.17096575085969598 0.0 0.0 0.0 0.0 0.0 0.0
 0.0 0.0 0.037495547899869766 0.17096575085969598 0.0 0.0 0.0 0.0
10.860276 0.0 0.0 0.0 0.0 0.06472482275552618 0.16225325913442676 0.0 0.0
 0.0 0.0 0.0 0.0 0.0 0.0 0.06472482275552618 0.16225325913442676
 0.06472482275552618 0.16225325913442676 0.0 0.0 0.0 0.0 0.0 0.0
 0.0 0.0 0.06472482275552618 0.16225325913442676 0.0 0.0 0.0 0.0
10.875275 0.0 0.0 0.0 0.0 0.09012102768429478 0.14924585743098948 0.0 0.0
 0.0 0.0 0.0 0.0 0.0 0.0 0.09012102768429478 0.14924585743098948
 0.09012102768429478 0.14924585743098948 0.0 0.0 0.0 0.0 0.0 0.0
 0.0 0.0 0.09012102768429478 0.14924585743098948 0.0 0.0 0.0 0.0
10.890274 0.0 0.0 0.0 0.0 0.11301371595974365 0.13230725777661134 0.0 0.0
 0.0 0.0 0.0 0.0 0.0 0.0 0.11301371595974365 0.13230725777661134
 0.11301371595974365 0.13230725777661134 0.0 0.0 0.0 0.0 0.0 0.0
 0.0 0.0 0.11301371595974365 0.13230725777661134 0.0 0.0 0.0 0.0
10.905273 0.0 0.0 0.0 0.0 0.1328018252270685 0.11190464933509368 0.0 0.0
 0.0 0.0 0.0 0.0 0.0 0.0 0.1328018252270685 0.11190464933509368
 0.1328018252270685 0.11190464933509368 0.0 0.0 0.0 0.0 0.0 0.0
 0.0 0.0 0.1328018252270685 0.11190464933509368 0.0 0.0 0.0 0.0
10.920272 0.0 0.0 0.0 0.0 0.14896944661739675 0.08859583591535784 0.0 0.0
 0.0 0.0 0.0 0.0 0.0 0.0 0.14896944661739675 0.08859583591535784
 0.14896944661739675 0.08859583591535784 0.0 0.0 0.0 0.0 0.0 0.0
 0.0 0.0 0.14896944661739675 0.08859583591535784 0.0 0.0 0.0 0.0
10.935271 0.0 0.0 0.0 0.0 0.16109926163388127 0.06301400519050454 0.0 0.0
 0.0 0.0 0.0 0.0 0.0 0.0 0.16109926163388127 0.06301400519050454
 0.16109926163388127 0.06301400519050454 0.0 0.0 0.0 0.0 0.0 0.0
 0.0 0.0 0.16109926163388127 0.06301400519050454 0.0 0.0 0.0 0.0
10.95027 0.0 0.0 0.0 0.0 0.1688832972120325 0.0358505449996083 0.0 0.0
 0.0 0.0 0.0 0.0 0.0 0.0 0.1688832972120325 0.0358505449996083
 0.1688832972120325 0.0358505449996083 0.0 0.0 0.0 0.0 0.0 0.0
 0.0 0.0 0.1688832972120325 0.0358505449996083 0.0 0.0 0.0 0.0
10.965269 0.0 0.0 0.0 0.0 0.17213072223169137 0.007836372630938861 0.0 0.0
 0.0 0.0 0.0 0.0 0.0 0.0 0.17213072223169137 0.007836372630938861
 0.17213072223169137 0.007836372630938861 0.0 0.0 0.0 0.0 0.0 0.0
 0.0 0.0 0.17213072223169137 0.007836372630938861 0.0 0.0 0.0 0.0
10.980268 0.0 0.0 0.0 0.0 0.17077248874042145 -0.02027771910862938 0.0 0.0
 0.0 0.0 0.0 0.0 0.0 0.0 0.17077248874042145 -0.02027771910862938
 0.17077248874042145 -0.02027771910862938 0.0 0.0 0.0 0.0 0.0 0.0
 0.0 0.0 0.17077248874042145 -0.02027771910862938 0.0 0.0 0.0 0.0
10.995267 0.0 0.0 0.0 0.0 0.1648627060775223 -0.04774117091128822 0.0 0.0
 0.0 0.0 0.0 0.0 0.0 0.0 0.1648627060775223 -0.04774117091128822
 0.1648627060775223 -0.04774117091128822 0.0 0.0 0.0 0.0 0.0 0.0
 0.0 0.0 0.1648627060775223 -0.04774117091128822 0.0 0.0 0.0 0.0
11.010266 0.0 0.0 0.0 0.0 0.1545767236799791 -0.07382368280690178 0.0 0.0
 0.0 0.0 0.0 0.0 0.0 0.0 0.1545767236799791 -0.07382368280690178
 0.1545767236799791 -0.07382368280690178 0.0 0.0 0.0 0.0 0.0 0.0
 0.0 0.0 0.1545767236799791 -0.07382368280690178 0.0 0.0 0.0 0.0
11.025265 0.0 0.0 0.0 0.0 0.14020598625931444 -0.09783462281615685 0.0 0.0
 0.0 0.0 0.0 0.0 0.0 0.0 0.14020598625931444 -0.09783462281615685
 0.14020598625931444 -0.09783462281615685 0.0 0.0 0.0 0.0 0.0 0.0
 0.0 0.0 0.14020598625931444 -0.09783462281615685 0.0 0.0 0.0 0.0
11.040264 0.0 0.0 0.0 0.0 0.12214981091508251 -0.11914130290339923 0.0 0.0
 0.0 0.0 0.0 0.0 0.0 0.0 0.12214981091508251 -0.11914130290339923
 0.12214981091508251 -0.11914130290339923 0.0 0.0 0.0 0.0 0.0 0.0
 0.0 0.0 0.12214981091508251 -0.11914130290339923 0.0 0.0 0.0 0.0
11.055263 0.0 0.0 0.0 0.0 0.1009043173129944 -0.1371856388907621 0.0 0.0
 0.0 0.0 0.0 0.0 0.0 0.0 0.1009043173129944 -0.1371856388907621
 0.1009043173129944 -0.1371856388907621 0.0 0.0 0.0 0.0 0.0 0.0
 0.0 0.0 0.1009043173129944 -0.1371856388907621 0.0 0.0 0.0 0.0
11.070262 0.0 0.0 0.0 0.0 0.07704881714319146 -0.1514987559468044 0.0 0.0
 0.0 0.0 0.0 0.0 0.0 0.0 0.07704881714319146 -0.1514987559468044
 0.07704881714319146 -0.1514987559468044 0.0 0.0 0.0 0.0 0.0 0.0
 0.0 0.0 0.07704881714319146 -0.1514987559468044 0.0 0.0 0.0 0.0
11.085261 0.0 0.0 0.0 0.0 0.0512300357082704 -0.1617131577418868 0.0 0.0
 0.0 0.0 0.0 0.0 0.0 0.0 0.0512300357082704 -0.1617131577418868
 0.0512300357082704 -0.1617131577418868 0.0 0.0 0.0 0.0 0.0 0.0
 0.0 0.0 0.0512300357082704 -0.1617131577418868 0.0 0.0 0.0 0.0
11.10026 0.0 0.0 0.0 0.0 0.024144594924417995 -0.16757214381937252 0.0 0.0
 0.0 0.0 0.0 0.0 0.0 0.0 0.024144594924417995 -0.16757214381937252
 0.024144594924417995 -0.16757214381937252 0.0 0.0 0.0 0.0 0.0 0.0
 0.0 0.0 0.024144594924417995 -0.16757214381937252 0.0 0.0 0.0 0.0
11.115259 0.0 0.0 0.0 0.0 -0.0034797682142703712 -0.16893623435496927 0.0 0.0
 0.0 0.0 0.0 0.0 0.0 0.0 -0.0034797682142703712 -0.16893623435496927
 -0.0034797682142703712 -0.16893623435496927 0.0 0.0 0.0 0.0 0.0 0.0
 0.0 0.0 -0.0034797682142703712 -0.16893623435496927 0.0 0.0 0.0 0.0
11.130258 0.0 0.0 0.0 0.0 -0.030903741710239453 -0.16578644224499622 0.0 0.0
 0.0 0.0 0.0 0.0 0.0 0.0 -0.030903741710239453 -0.16578644224499622
 -0.030903741710239453 -0.16578644224499622 0.0 0.0 0.0 0.0 0.0 0.0
 0.0 0.0 -0.030903741710239453 -0.16578644224499622 0.0 0.0 0.0 0.0
11.145257 0.0 0.0 0.0 0.0 -0.05739621285167375 -0.158224317199284 0.0 0.0
 0.0 0.0 0.0 0.0 0.0 0.0 -0.05739621285167375 -0.158224317199284
 -0.05739621285167375 -0.158224317199284 0.0 0.0 0.0 0.0 0.0 0.0
 0.0 0.0 -0.05739621285167375 -0.158224317199284 0.0 0.0 0.0 0.0
11.160256 0.0 0.0 0.0 0.0 -0.08225374812787369 -0.14646877294016802 0.0 0.0
 0.0 0.0 0.0 0.0 0.0 0.0 -0.08225374812787369 -0.14646877294016802
 -0.08225374812787369 -0.14646877294016802 0.0 0.0 0.0 0.0 0.0 0.0
 0.0 0.0 -0.08225374812787369 -0.14646877294016802 0.0 0.0 0.0 0.0
11.175255 0.0 0.0 0.0 0.0 -0.10481926003826275 -0.13084979441289524 0.0 0.0
 0.0 0.0 0.0 0.0 0.0 0.0 -0.10481926003826275 -0.13084979441289524
 -0.10481926003826275 -0.13084979441289524 0.0 0.0 0.0 0.0 0.0 0.0
 0.0 0.0 -0.10481926003826275 -0.13084979441289524 0.0 0.0 0.0 0.0
11.190254 0.0 0.0 0.0 0.0 -0.124499365725229 -0.11179920480733267 0.0 0.0
 0.0 0.0 0.0 0.0 0.0 0.0 -0.124499365725229 -0.11179920480733267
 -0.124499365725229 -0.11179920480733267 0.0 0.0 0.0 0.0 0.0 0.0
 0.0 0.0 -0.124499365725229 -0.11179920480733267 0.0 0.0 0.0 0.0
11.205253 0.0 0.0 0.0 0.0 -0.1407799791454657 -0.08983874997504576 0.0 0.0
 0.0 0.0 0.0 0.0 0.0 0.0 -0.1407799791454657 -0.08983874997504576
 -0.1407799791454657 -0.08983874997504576 0.0 0.0 0.0 0.0 0.0 0.0
 0.0 0.0 -0.1407799791454657 -0.08983874997504576 0.0 0.0 0.0 0.0
11.220252 0.0 0.0 0.0 0.0 -0.15323972737089184 -0.06556582844298642 0.0 0.0
 0.0 0.0 0.0 0.0 0.0 0.0 -0.15323972737089184 -0.06556582844298642
 -0.15323972737089184 -0.06556582844298642 0.0 0.0 0.0 0.0 0.0 0.0
 0.0 0.0 -0.15323972737089184 -0.06556582844298642 0.0 0.0 0.0 0.0
11.235251 0.0 0.0 0.0 0.0 -0.16156084122863346 -0.0396372568173641 0.0 0.0
 0.0 0.0 0.0 0.0 0.0 0.0 -0.16156084122863346 -0.0396372568173641
 -0.16156084122863346 -0.0396372568173641 0.0 0.0 0.0 0.0 0.0 0.0
 0.0 0.0 -0.16156084122863346 -0.0396372568173641 0.0 0.0 0.0 0.0
11.25025 0.0 0.0 0.0 0.0 -0.16553723921847113 -0.012751511329169078 0.0 0.0
 0.0 0.0 0.0 0.0 0.0 0.0 -0.16553723921847113 -0.012751511329169078
 -0.16553723921847113 -0.012751511329169078 0.0 0.0 0.0 0.0 0.0 0.0
 0.0 0.0 -0.16553723921847113 -0.012751511329169078 0.0 0.0 0.0 0.0
11.265249 0.0 0.0 0.0 0.0 -0.16507959961756669 0.014370074724300423 0.0 0.0
 0.0 0.0 0.0 0.0 0.0 0.0 -0.16507959961756669 0.014370074724300423
 -0.16507959961756669 0.014370074724300423 0.0 0.0 0.0 0.0 0.0 0.0
 0.0 0.0 -0.16507959961756669 0.014370074724300423 0.0 0.0 0.0 0.0
11.280248 0.0 0.0 0.0 0.0 -0.16021729684118205 0.04100265183508815 0.0 0.0
 0.0 0.0 0.0 0.0 0.0 0.0 -0.16021729684118205 0.04100265183508815
 -0.16021729684118205 0.04100265183508815 0.0 0.0 0.0 0.0 0.0 0.0
 0.0 0.0 -0.16021729684118205 0.04100265183508815 0.0 0.0 0.0 0.0
11.295247 0.0 0.0 0.0 0.0 -0.15109716228936818 0.06643721517635072 0.0 0.0
 0.0 0.0 0.0 0.0 0.0 0.0 -0.15109716228936818 0.06643721517635072
 -0.15109716228936818 0.06643721517635072 0.0 0.0 0.0 0.0 0.0 0.0
 0.0 0.0 -0.15109716228936818 0.06643721517635072 0.0 0.0 0.0 0.0
11.310246 0.0 0.0 0.0 0.0 -0.13797911481549924 0.08999946869352814 0.0 0.0
 0.0 0.0 0.0 0.0 0.0 0.0 -0.13797911481549924 0.08999946869352814
 -0.13797911481549924 0.08999946869352814 0.0 0.0 0.0 0.0 0.0 0.0
 0.0 0.0 -0.13797911481549924 0.08999946869352814 0.0 0.0 0.0 0.0
11.325245 0.0 0.0 0.0 0.0 -0.121228789334319 0.11106769077211719 0.0 0.0
 0.0 0.0 0.0 0.0 0.0 0.0 -0.121228789334319 0.11106769077211719
 -0.121228789334319 0.11106769077211719 0.0 0.0 0.0 0.0 0.0 0.0
 0.0 0.0 -0.121228789334319 0.11106769077211719 0.0 0.0 0.0 0.0
11.340244 0.0 0.0 0.0 0.0 -0.10130737172520984 0.12908912840415016 0.0 0.0
 0.0 0.0 0.0 0.0 0.0 0.0 -0.10130737172520984 0.12908912840415016
 -0.10130737172520984 0.12908912840415016 0.0 0.0 0.0 0.0 0.0 0.0
 0.0 0.0 -0.10130737172520984 0.12908912840415016 0.0 0.0 0.0 0.0
11.355243 0.0 0.0 0.0 0.0 -0.07875892196862527 0.14359448784070744 0.0 0.0
 0.0 0.0 0.0 0.0 0.0 0.0 -0.07875892196862527 0.14359448784070744
 -0.07875892196862527 0.14359448784070744 0.0 0.0 0.0 0.0 0.0 0.0
 0.0 0.0 -0.07875892196862527 0.14359448784070744 0.0 0.0 0.0 0.0
11.370242 0.0 0.0 0.0 0.0 -0.05419553343346025 0.1542101421589358 0.0 0.0
 0.0 0.0 0.0 0.0 0.0 0.0 -0.05419553343346025 0.1542101421589358
 -0.05419553343346025 0.1542101421589358 0.0 0.0 0.0 0.0 0.0 0.0
 0.0 0.0 -0.05419553343346025 0.1542101421589358 0.0 0.0 0.0 0.0
11.385241 0.0 0.0 0.0 0.0 -0.028280732677618197 0.16066773854837405 0.0 0.0
 0.0 0.0 0.0 0.0 0.0 0.0 -0.028280732677618197 0.16066773854837405
 -0.028280732677618197 0.16066773854837405 0.0 0.0 0.0 0.0 0.0 0.0
 0.0 0.0 -0.028280732677618197 0.16066773854837405 0.0 0.0 0.0 0.0
11.40024 0.0 0.0 0.0 0.0 -0.0017115695633696472 0.16281095872939225 0.0 0.0
 0.0 0.0 0.0 0.0 0.0 0.0 -0.0017115695633696472 0.16281095872939225
 -0.0017115695633696472 0.16281095872939225 0.0 0.0 0.0 0.0 0.0 0.0
 0.0 0.0 -0.0017115695633696472 0.16281095872939225 0.0 0.0 0.0 0.0
11.415239 0.0 0.0 0.0 0.0 0.02480011924965843 0.16059926284177276 0.0 0.0
 0.0 0.0 0.0 0.0 0.0 0.0 0.02480011924965843 0.16059926284177276
 0.02480011924965843 0.16059926284177276 0.0 0.0 0.0 0.0 0.0 0.0
 0.0 0.0 0.02480011924965843 0.16059926284177276 0.0 0.0 0.0 0.0
11.430238 0.0 0.0 0.0 0.0 0.050546770128824706 0.15410852830613328 0.0 0.0
 0.0 0.0 0.0 0.0 0.0 0.0 0.050546770128824706 0.15410852830613328
 0.050546770128824706 0.15410852830613328 0.0 0.0 0.0 0.0 0.0 0.0
 0.0 0.0 0.050546770128824706 0.15410852830613328 0.0 0.0 0.0 0.0
11.445237 0.0 0.0 0.0 0.0 0.07484396557499583 0.14352857838312658 0.0 0.0
 0.0 0.0 0.0 0.0 0.0 0.0 0.07484396557499583 0.14352857838312658
 0.07484396557499583 0.14352857838312658 0.0 0.0 0.0 0.0 0.0 0.0
 0.0 0.0 0.07484396557499583 0.14352857838312658 0.0 0.0 0.0 0.0
11.460236 0.0 0.0 0.0 0.0 0.09704861748592633 0.1291576782055586 0.0 0.0
 0.0 0.0 0.0 0.0 0.0 0.0 0.09704861748592633 0.1291576782055586
 0.09704861748592633 0.1291576782055586 0.0 0.0 0.0 0.0 0.0 0.0
 0.0 0.0 0.09704861748592633 0.1291576782055586 0.0 0.0 0.0 0.0
11.475235 0.0 0.0 0.0 0.0 0.1165759777664051 0.11139415672060105 0.0 0.0
 0.0 0.0 0.0 0.0 0.0 0.0 0.1165759777664051 0.11139415672060105
 0.1165759777664051 0.11139415672060105 0.0 0.0 0.0 0.0 0.0 0.0
 0.0 0.0 0.1165759777664051 0.11139415672060105 0.0 0.0 0.0 0.0
11.490234 0.0 0.0 0.0 0.0 0.13291502660282828 0.0907253891086403 0.0 0.0
 0.0 0.0 0.0 0.0 0.0 0.0 0.13291502660282828 0.0907253891086403
 0.13291502660282828 0.0907253891086403 0.0 0.0 0.0 0.0 0.0 0.0
 0.0 0.0 0.13291502660282828 0.0907253891086403 0.0 0.0 0.0 0.0
11.505233 0.0 0.0 0.0 0.0 0.14564183372787415 0.06771444382681797 0.0 0.0
 0.0 0.0 0.0 0.0 0.0 0.0 0.14564183372787415 0.06771444382681797
 0.14564183372787415 0.06771444382681797 0.0 0.0 0.0 0.0 0.0 0.0
 0.0 0.0 0.14564183372787415 0.06771444382681797 0.0 0.0 0.0 0.0
11.520232 0.0 0.0 0.0 0.0 0.1544305436435646 0.04298475962565893 0.0 0.0
 0.0 0.0 0.0 0.0 0.0 0.0 0.1544305436435646 0.04298475962565893
 0.1544305436435646 0.04298475962565893 0.0 0.0 0.0 0.0 0.0 0.0
 0.0 0.0 0.1544305436435646 0.04298475962565893 0.0 0.0 0.0 0.0
11.535231 0.0 0.0 0.0 0.0 0.1590617005226891 0.017203269104073333 0.0 0.0
 0.0 0.0 0.0 0.0 0.0 0.0 0.1590617005226891 0.017203269104073333
 0.1590617005226891 0.017203269104073333 0.0 0.0 0.0 0.0 0.0 0.0
 0.0 0.0 0.1590617005226891 0.017203269104073333 0.0 0.0 0.0 0.0
11.55023 0.0 0.0 0.0 0.0 0.15942770060683048 -0.008937574728820034 0.0 0.0
 0.0 0.0 0.0 0.0 0.0 0.0 0.15942770060683048 -0.008937574728820034
 0.15942770060683048 -0.008937574728820034 0.0 0.0 0.0 0.0 0.0 0.0
 0.0 0.0 0.15942770060683048 -0.008937574728820034 0.0 0.0 0.0 0.0
11.565229 0.0 0.0 0.0 0.0 0.15553523741163228 -0.03473838484989741 0.0 0.0
 0.0 0.0 0.0 0.0 0.0 0.0 0.15553523741163228 -0.03473838484989741
 0.15553523741163228 -0.03473838484989741 0.0 0.0 0.0 0.0 0.0 0.0
 0.0 0.0 0.15553523741163228 -0.03473838484989741 0.0 0.0 0.0 0.0
11.580228 0.0 0.0 0.0 0.0 0.14750468584758905 -0.05951154100116021 0.0 0.0
 0.0 0.0 0.0 0.0 0.0 0.0 0.14750468584758905 -0.05951154100116021
 0.14750468584758905 -0.05951154100116021 0.0 0.0 0.0 0.0 0.0 0.0
 0.0 0.0 0.14750468584758905 -0.05951154100116021 0.0 0.0 0.0 0.0
11.595227 0.0 0.0 0.0 0.0 0.13556645329784914 -0.08259950510268069 0.0 0.0
 0.0 0.0 0.0 0.0 0.0 0.0 0.13556645329784914 -0.08259950510268069
 0.13556645329784914 -0.08259950510268069 0.0 0.0 0.0 0.0 0.0 0.0
 0.0 0.0 0.13556645329784914 -0.08259950510268069 0.0 0.0 0.0 0.0
11.610226 0.0 0.0 0.0 0.0 0.12005440657162383 -0.10339226372378366 0.0 0.0
 0.0 0.0 0.0 0.0 0.0 0.0 0.12005440657162383 -0.10339226372378366
 0.12005440657162383 -0.10339226372378366 0.0 0.0 0.0 0.0 0.0 0.0
 0.0 0.0 0.12005440657162383 -0.10339226372378366 0.0 0.0 0.0 0.0
11.625225 0.0 0.0 0.0 0.0 0.10139656131731659 -0.12134343518310339 0.0 0.0
 0.0 0.0 0.0 0.0 0.0 0.0 0.10139656131731659 -0.12134343518310339
 0.10139656131731659 -0.12134343518310339 0.0 0.0 0.0 0.0 0.0 0.0
 0.0 0.0 0.10139656131731659 -0.12134343518310339 0.0 0.0 0.0 0.0
11.640224 0.0 0.0 0.0 0.0 0.08010329287172668 -0.13598461624715372 0.0 0.0
 0.0 0.0 0.0 0.0 0.0 0.0 0.08010329287172668 -0.13598461624715372
 0.08010329287172668 -0.13598461624715372 0.0 0.0 0.0 0.0 0.0 0.0
 0.0 0.0 0.08010329287172668 -0.13598461624715372 0.0 0.0 0.0 0.0
11.655223 0.0 0.0 0.0 0.0 0.056753392727456525 -0.1469375920045379 0.0 0.0
 0.0 0.0 0.0 0.0 0.0 0.0 0.056753392727456525 -0.1469375920045379
 0.056753392727456525 -0.1469375920045379 0.0 0.0 0.0 0.0 0.0 0.0
 0.0 0.0 0.056753392727456525 -0.1469375920045379 0.0 0.0 0.0 0.0
11.670222 0.0 0.0 0.0 0.0 0.03197835110572079 -0.15392409096921428 0.0 0.0
 0.0 0.0 0.0 0.0 0.0 0.0 0.03197835110572079 -0.15392409096921428
 0.03197835110572079 -0.15392409096921428 0.0 0.0 0.0 0.0 0.0 0.0
 0.0 0.0 0.03197835110572079 -0.15392409096921428 0.0 0.0 0.0 0.0
11.685221 0.0 0.0 0.0 0.0 0.006445292055847198 -0.15677283421311208 0.0 0.0
 0.0 0.0 0.0 0.0 0.0 0.0 0.006445292055847198 -0.15677283421311208
 0.006445292055847198 -0.15677283421311208 0.0 0.0 0.0 0.0 0.0 0.0
 0.0 0.0 0.006445292055847198 -0.15677283421311208 0.0 0.0 0.0 0.0
11.70022 0.0 0.0 0.0 0.0 -0.01916097812192976 -0.15542370053267263 0.0 0.0
 0.0 0.0 0.0 0.0 0.0 0.0 -0.01916097812192976 -0.15542370053267263
 -0.01916097812192976 -0.15542370053267263 0.0 0.0 0.0 0.0 0.0 0.0
 0.0 0.0 -0.01916097812192976 -0.15542370053267263 0.0 0.0 0.0 0.0
11.715219 0.0 0.0 0.0 0.0 -0.04415632639196944 -0.1499289073367302 0.0 0.0
 0.0 0.0 0.0 0.0 0.0 0.0 -0.04415632639196944 -0.1499289073367302
 -0.04415632639196944 -0.1499289073367302 0.0 0.0 0.0 0.0 0.0 0.0
 0.0 0.0 -0.04415632639196944 -0.1499289073367302 0.0 0.0 0.0 0.0
11.730218 0.0 0.0 0.0 0.0 -0.0678755607298107 -0.1404511870136037 0.0 0.0
 0.0 0.0 0.0 0.0 0.0 0.0 -0.0678755607298107 -0.1404511870136037
 -0.0678755607298107 -0.1404511870136037 0.0 0.0 0.0 0.0 0.0 0.0
 0.0 0.0 -0.0678755607298107 -0.1404511870136037 0.0 0.0 0.0 0.0
11.745217 0.0 0.0 0.0 0.0 -0.08969012258843596 -0.12725901884606575 0.0 0.0
 0.0 0.0 0.0 0.0 0.0 0.0 -0.08969012258843596 -0.12725901884606575
 -0.08969012258843596 -0.12725901884606575 0.0 0.0 0.0 0.0 0.0 0.0
 0.0 0.0 -0.08969012258843596 -0.12725901884606575 0.0 0.0 0.0 0.0
11.760216 0.0 0.0 0.0 0.0 -0.10902473377092997 -0.11071905494873013 0.0 0.0
 0.0 0.0 0.0 0.0 0.0 0.0 -0.10902473377092997 -0.11071905494873013
 -0.10902473377092997 -0.11071905494873013 0.0 0.0 0.0 0.0 0.0 0.0
 0.0 0.0 -0.10902473377092997 -0.11071905494873013 0.0 0.0 0.0 0.0
11.775215 0.0 0.0 0.0 0.0 -0.12537255709051542 -0.0912859531163799 0.0 0.0
 0.0 0.0 0.0 0.0 0.0 0.0 -0.12537255709051542 -0.0912859531163799
 -0.12537255709051542 -0.0912859531163799 0.0 0.0 0.0 0.0 0.0 0.0
 0.0 0.0 -0.12537255709051542 -0.0912859531163799 0.0 0.0 0.0 0.0
11.790214 0.0 0.0 0.0 0.0 -0.138308471548301 -0.0694898979217624 0.0 0.0
 0.0 0.0 0.0 0.0 0.0 0.0 -0.138308471548301 -0.0694898979217624
 -0.138308471548301 -0.0694898979217624 0.0 0.0 0.0 0.0 0.0 0.0
 0.0 0.0 -0.138308471548301 -0.0694898979217624 0.0 0.0 0.0 0.0
11.805213 0.0 0.0 0.0 0.0 -0.14750011461676826 -0.045922152081539706 0.0 0.0
 0.0 0.0 0.0 0.0 0.0 0.0 -0.14750011461676826 -0.045922152081539706
 -0.14750011461676826 -0.045922152081539706 0.0 0.0 0.0 0.0 0.0 0.0
 0.0 0.0 -0.14750011461676826 -0.045922152081539706 0.0 0.0 0.0 0.0
11.820212 0.0 0.0 0.0 0.0 -0.15271640515863916 -0.021219031427756226 0.0 0.0
 0.0 0.0 0.0 0.0 0.0 0.0 -0.15271640515863916 -0.021219031427756226
 -0.15271640515863916 -0.021219031427756226 0.0 0.0 0.0 0.0 0.0 0.0
 0.0 0.0 -0.15271640515863916 -0.021219031427756226 0.0 0.0 0.0 0.0
11.835211 0.0 0.0 0.0 0.0 -0.1538333288748867 0.0039552625562517315 0.0 0.0
 0.0 0.0 0.0 0.0 0.0 0.0 -0.1538333288748867 0.0039552625562517315
 -0.1538333288748867 0.0039552625562517315 0.0 0.0 0.0 0.0 0.0 0.0
 0.0 0.0 -0.1538333288748867 0.0039552625562517315 0.0 0.0 0.0 0.0
11.85021 0.0 0.0 0.0 0.0 -0.1508368421088234 0.028926489796635597 0.0 0.0
 0.0 0.0 0.0 0.0 0.0 0.0 -0.1508368421088234 0.028926489796635597
 -0.1508368421088234 0.028926489796635597 0.0 0.0 0.0 0.0 0.0 0.0
 0.0 0.0 -0.1508368421088234 0.028926489796635597 0.0 0.0 0.0 0.0
11.865209 0.0 0.0 0.0 0.0 -0.1438228273403634 0.05302841903826922 0.0 0.0
 0.0 0.0 0.0 0.0 0.0 0.0 -0.1438228273403634 0.05302841903826922
 -0.1438228273403634 0.05302841903826922 0.0 0.0 0.0 0.0 0.0 0.0
 0.0 0.0 -0.1438228273403634 0.05302841903826922 0.0 0.0 0.0 0.0
11.880208 0.0 0.0 0.0 0.0 -0.13299411270188777 0.07562059280511302 0.0 0.0
 0.0 0.0 0.0 0.0 0.0 0.0 -0.13299411270188777 0.07562059280511302
 -0.13299411270188777 0.07562059280511302 0.0 0.0 0.0 0.0 0.0 0.0
 0.0 0.0 -0.13299411270188777 0.07562059280511302 0.0 0.0 0.0 0.0
11.895207 0.0 0.0 0.0 0.0 -0.11865464621958721 0.09610533647469527 0.0 0.0
 0.0 0.0 0.0 0.0 0.0 0.0 -0.11865464621958721 0.09610533647469527
 -0.11865464621958721 0.09610533647469527 0.0 0.0 0.0 0.0 0.0 0.0
 0.0 0.0 -0.11865464621958721 0.09610533647469527 0.0 0.0 0.0 0.0
11.910206 0.0 0.0 0.0 0.0 -0.10120099114061458 0.11394355999949216 0.0 0.0
 0.0 0.0 0.0 0.0 0.0 0.0 -0.10120099114061458 0.11394355999949216
 -0.10120099114061458 0.11394355999949216 0.0 0.0 0.0 0.0 0.0 0.0
 0.0 0.0 -0.10120099114061458 0.11394355999949216 0.0 0.0 0.0 0.0
11.925205 0.0 0.0 0.0 0.0 -0.08111137963619283 0.12866893475475208 0.0 0.0
 0.0 0.0 0.0 0.0 0.0 0.0 -0.08111137963619283 0.12866893475475208
 -0.08111137963619283 0.12866893475475208 0.0 0.0 0.0 0.0 0.0 0.0
 0.0 0.0 -0.08111137963619283 0.12866893475475208 0.0 0.0 0.0 0.0
11.940204 0.0 0.0 0.0 0.0 -0.05893262649727138 0.13990007296394655 0.0 0.0
 0.0 0.0 0.0 0.0 0.0 0.0 -0.05893262649727138 0.13990007296394655
 -0.05893262649727138 0.13990007296394655 0.0 0.0 0.0 0.0 0.0 0.0
 0.0 0.0 -0.05893262649727138 0.13990007296394655 0.0 0.0 0.0 0.0
11.955203 0.0 0.0 0.0 0.0 -0.03526526046835237 0.14735039190790442 0.0 0.0
 0.0 0.0 0.0 0.0 0.0 0.0 -0.03526526046835237 0.14735039190790442
 -0.03526526046835237 0.14735039190790442 0.0 0.0 0.0 0.0 0.0 0.0
 0.0 0.0 -0.03526526046835237 0.14735039190790442 0.0 0.0 0.0 0.0
11.970202 0.0 0.0 0.0 0.0 -0.010747277131648804 0.1508354081621648 0.0 0.0
 0.0 0.0 0.0 0.0 0.0 0.0 -0.010747277131648804 0.1508354081621648
 -0.010747277131648804 0.1508354081621648 0.0 0.0 0.0 0.0 0.0 0.0
 0.0 0.0 -0.010747277131648804 0.1508354081621648 0.0 0.0 0.0 0.0
11.985201 0.0 0.0 0.0 0.0 0.013963047442258687 0.15027727671511498 0.0 0.0
 0.0 0.0 0.0 0.0 0.0 0.0 0.013963047442258687 0.15027727671511498
 0.013963047442258687 0.15027727671511498 0.0 0.0 0.0 0.0 0.0 0.0
 0.0 0.0 0.013963047442258687 0.15027727671511498 0.0 0.0 0.0 0.0
12.0002 0.0 0.0 0.0 0.0 0.03820481962181043 0.14570646411286878 0.0 0.0
 0.0 0.0 0.0 0.0 0.0 0.0 0.03820481962181043 0.14570646411286878
 0.03820481962181043 0.14570646411286878 0.0 0.0 0.0 0.0 0.0 0.0
 0.0 0.0 0.03820481962181043 0.14570646411286878 0.0 0.0 0.0 0.0
12.015199 0.0 0.0 0.0 0.0 0.06133219407131432 0.13726052175365158 0.0 0.0
 0.0 0.0 0.0 0.0 0.0 0.0 0.06133219407131432 0.13726052175365158
 0.06133219407131432 0.13726052175365158 0.0 0.0 0.0 0.0 0.0 0.0
 0.0 0.0 0.06133219407131432 0.13726052175365158 0.0 0.0 0.0 0.0
12.030198 0.0 0.0 0.0 0.0 0.08273157058998745 0.12518000304853757 0.0 0.0
 0.0 0.0 0.0 0.0 0.0 0.0 0.08273157058998745 0.12518000304853757
 0.08273157058998745 0.12518000304853757 0.0 0.0 0.0 0.0 0.0 0.0
 0.0 0.0 0.08273157058998745 0.12518000304853757 0.0 0.0 0.0 0.0
12.045197 0.0 0.0 0.0 0.0 0.10183786428793744 0.10980164430157476 0.0 0.0
 0.0 0.0 0.0 0.0 0.0 0.0 0.10183786428793744 0.10980164430157476
 0.10183786428793744 0.10980164430157476 0.0 0.0 0.0 0.0 0.0 0.0
 0.0 0.0 0.10183786428793744 0.10980164430157476 0.0 0.0 0.0 0.0
12.060196 0.0 0.0 0.0 0.0 0.11814941792873158 0.09154900181202236 0.0 0.0
 0.0 0.0 0.0 0.0 0.0 0.0 0.11814941792873158 0.09154900181202236
 0.11814941792873158 0.09154900181202236 0.0 0.0 0.0 0.0 0.0 0.0
 0.0 0.0 0.11814941792873158 0.09154900181202236 0.0 0.0 0.0 0.0
12.075195 0.0 0.0 0.0 0.0 0.13124116316232248 0.07092080493711912 0.0 0.0
 0.0 0.0 0.0 0.0 0.0 0.0 0.13124116316232248 0.07092080493711912
 0.13124116316232248 0.07092080493711912 0.0 0.0 0.0 0.0 0.0 0.0
 0.0 0.0 0.13124116316232248 0.07092080493711912 0.0 0.0 0.0 0.0
12.090194 0.0 0.0 0.0 0.0 0.14077568563170567 0.04847734489894803 0.0 0.0
 0.0 0.0 0.0 0.0 0.0 0.0 0.14077568563170567 0.04847734489894803
 0.14077568563170567 0.04847734489894803 0.0 0.0 0.0 0.0 0.0 0.0
 0.0 0.0 0.14077568563170567 0.04847734489894803 0.0 0.0 0.0 0.0
12.105193 0.0 0.0 0.0 0.0 0.14651190623305535 0.02482527039673515 0.0 0.0
 0.0 0.0 0.0 0.0 0.0 0.0 0.14651190623305535 0.02482527039673515
 0.14651190623305535 0.02482527039673515 0.0 0.0 0.0 0.0 0.0 0.0
 0.0 0.0 0.14651190623305535 0.02482527039673515 0.0 0.0 0.0 0.0
12.120192 0.0 0.0 0.0 0.0 0.1483111555786185 0.0006012022583385392 0.0 0.0
 0.0 0.0 0.0 0.0 0.0 0.0 0.1483111555786185 0.0006012022583385392
 0.1483111555786185 0.0006012022583385392 0.0 0.0 0.0 0.0 0.0 0.0
 0.0 0.0 0.1483111555786185 0.0006012022583385392 0.0 0.0 0.0 0.0
12.135191 0.0 0.0 0.0 0.0 0.1461404891955854 -0.023545390630015393 0.0 0.0
 0.0 0.0 0.0 0.0 0.0 0.0 0.1461404891955854 -0.023545390630015393
 0.1461404891955854 -0.023545390630015393 0.0 0.0 0.0 0.0 0.0 0.0
 0.0 0.0 0.1461404891955854 -0.023545390630015393 0.0 0.0 0.0 0.0
12.15019 0.0 0.0 0.0 0.0 0.14007316528855765 -0.046969593799241954 0.0 0.0
 0.0 0.0 0.0 0.0 0.0 0.0 0.14007316528855765 -0.046969593799241954
 0.14007316528855765 -0.046969593799241954 0.0 0.0 0.0 0.0 0.0 0.0
 0.0 0.0 0.14007316528855765 -0.046969593799241954 0.0 0.0 0.0 0.0
12.165189 0.0 0.0 0.0 0.0 0.13028628299874945 -0.06904826205023536 0.0 0.0
 0.0 0.0 0.0 0.0 0.0 0.0 0.13028628299874945 -0.06904826205023536
 0.13028628299874945 -0.06904826205023536 0.0 0.0 0.0 0.0 0.0 0.0
 0.0 0.0 0.13028628299874945 -0.06904826205023536 0.0 0.0 0.0 0.0
12.180188 0.0 0.0 0.0 0.0 0.11705565496961197 -0.0891965874178736 0.0 0.0
 0.0 0.0 0.0 0.0 0.0 0.0 0.11705565496961197 -0.0891965874178736
 0.11705565496961197 -0.0891965874178736 0.0 0.0 0.0 0.0 0.0 0.0
 0.0 0.0 0.11705565496961197 -0.0891965874178736 0.0 0.0 0.0 0.0
12.195187 0.0 0.0 0.0 0.0 0.1007480616498386 -0.10688357998726543 0.0 0.0
 0.0 0.0 0.0 0.0 0.0 0.0 0.1007480616498386 -0.10688357998726543
 0.1007480616498386 -0.10688357998726543 0.0 0.0 0.0 0.0 0.0 0.0
 0.0 0.0 0.1007480616498386 -0.10688357998726543 0.0 0.0 0.0 0.0
12.210186 0.0 0.0 0.0 0.0 0.08181110417170108 -0.12164605200365049 0.0 0.0
 0.0 0.0 0.0 0.0 0.0 0.0 0.08181110417170108 -0.12164605200365049
 0.08181110417170108 -0.12164605200365049 0.0 0.0 0.0 0.0 0.0 0.0
 0.0 0.0 0.08181110417170108 -0.12164605200365049 0.0 0.0 0.0 0.0
12.225185 0.0 0.0 0.0 0.0 0.06076093599693425 -0.1331007372459673 0.0 0.0
 0.0 0.0 0.0 0.0 0.0 0.0 0.06076093599693425 -0.1331007372459673
 0.06076093599693425 -0.1331007372459673 0.0 0.0 0.0 0.0 0.0 0.0
 0.0 0.0 0.06076093599693425 -0.1331007372459673 0.0 0.0 0.0 0.0
12.240184 0.0 0.0 0.0 0.0 0.03816820915306755 -0.14095422884216482 0.0 0.0
 0.0 0.0 0.0 0.0 0.0 0.0 0.03816820915306755 -0.14095422884216482
 0.03816820915306755 -0.14095422884216482 0.0 0.0 0.0 0.0 0.0 0.0
 0.0 0.0 0.03816820915306755 -0.14095422884216482 0.0 0.0 0.0 0.0
12.255183 0.0 0.0 0.0 0.0 0.014642617332937492 -0.14501047818675972 0.0 0.0
 0.0 0.0 0.0 0.0 0.0 0.0 0.014642617332937492 -0.14501047818675972
 0.014642617332937492 -0.14501047818675972 0.0 0.0 0.0 0.0 0.0 0.0
 0.0 0.0 0.014642617332937492 -0.14501047818675972 0.0 0.0 0.0 0.0
12.270182 0.0 0.0 0.0 0.0 -0.00918354580847817 -0.14517566375838006 0.0 0.0
 0.0 0.0 0.0 0.0 0.0 0.0 -0.00918354580847817 -0.14517566375838006
 -0.00918354580847817 -0.14517566375838006 0.0 0.0 0.0 0.0 0.0 0.0
 0.0 0.0 -0.00918354580847817 -0.14517566375838006 0.0 0.0 0.0 0.0
12.285181 0.0 0.0 0.0 0.0 -0.032672370077513196 -0.14146030963473077 0.0 0.0
 0.0 0.0 0.0 0.0 0.0 0.0 -0.032672370077513196 -0.14146030963473077
 -0.032672370077513196 -0.14146030963473077 0.0 0.0 0.0 0.0 0.0 0.0
 0.0 0.0 -0.032672370077513196 -0.14146030963473077 0.0 0.0 0.0 0.0
12.30018 0.0 0.0 0.0 0.0 -0.05519739798738597 -0.1339786074494632 0.0 0.0
 0.0 0.0 0.0 0.0 0.0 0.0 -0.05519739798738597 -0.1339786074494632
 -0.05519739798738597 -0.1339786074494632 0.0 0.0 0.0 0.0 0.0 0.0
 0.0 0.0 -0.05519739798738597 -0.1339786074494632 0.0 0.0 0.0 0.0
12.315179 0.0 0.0 0.0 0.0 -0.07616032334315403 -0.1229449704427368 0.0 0.0
 0.0 0.0 0.0 0.0 0.0 0.0 -0.07616032334315403 -0.1229449704427368
 -0.07616032334315403 -0.1229449704427368 0.0 0.0 0.0 0.0 0.0 0.0
 0.0 0.0 -0.07616032334315403 -0.1229449704427368 0.0 0.0 0.0 0.0
12.330178 0.0 0.0 0.0 0.0 -0.0950068742990892 -0.10866792211959277 0.0 0.0
 0.0 0.0 0.0 0.0 0.0 0.0 -0.0950068742990892 -0.10866792211959277
 -0.0950068742990892 -0.10866792211959277 0.0 0.0 0.0 0.0 0.0 0.0
 0.0 0.0 -0.0950068742990892 -0.10866792211959277 0.0 0.0 0.0 0.0
12.345177 0.0 0.0 0.0 0.0 -0.1112414594833032 -0.09154149287751474 0.0 0.0
 0.0 0.0 0.0 0.0 0.0 0.0 -0.1112414594833032 -0.09154149287751474
 -0.1112414594833032 -0.09154149287751474 0.0 0.0 0.0 0.0 0.0 0.0
 0.0 0.0 -0.1112414594833032 -0.09154149287751474 0.0 0.0 0.0 0.0
12.360176 0.0 0.0 0.0 0.0 -0.12444019042004656 -0.0720343639148402 0.0 0.0
 0.0 0.0 0.0 0.0 0.0 0.0 -0.12444019042004656 -0.0720343639148402
 -0.12444019042004656 -0.0720343639148402 0.0 0.0 0.0 0.0 0.0 0.0
 0.0 0.0 -0.12444019042004656 -0.0720343639148402 0.0 0.0 0.0 0.0
12.375175 0.0 0.0 0.0 0.0 -0.13426193832351915 -0.050677057040261486 0.0 0.0
 0.0 0.0 0.0 0.0 0.0 0.0 -0.13426193832351915 -0.050677057040261486
 -0.13426193832351915 -0.050677057040261486 0.0 0.0 0.0 0.0 0.0 0.0
 0.0 0.0 -0.13426193832351915 -0.050677057040261486 0.0 0.0 0.0 0.0
12.390174 0.0 0.0 0.0 0.0 -0.14045713715104713 -0.028047520110611433 0.0 0.0
 0.0 0.0 0.0 0.0 0.0 0.0 -0.14045713715104713 -0.028047520110611433
 -0.14045713715104713 -0.028047520110611433 0.0 0.0 0.0 0.0 0.0 0.0
 0.0 0.0 -0.14045713715104713 -0.028047520110611433 0.0 0.0 0.0 0.0
12.405173 0.0 0.0 0.0 0.0 -0.14287410611726323 -0.004755499393780998 0.0 0.0
 0.0 0.0 0.0 0.0 0.0 0.0 -0.14287410611726323 -0.004755499393780998
 -0.14287410611726323 -0.004755499393780998 0.0 0.0 0.0 0.0 0.0 0.0
 0.0 0.0 -0.14287410611726323 -0.004755499393780998 0.0 0.0 0.0 0.0
12.420172 0.0 0.0 0.0 0.0 -0.1414627320177909 0.018573878889914724 0.0 0.0
 0.0 0.0 0.0 0.0 0.0 0.0 -0.1414627320177909 0.018573878889914724
 -0.1414627320177909 0.018573878889914724 0.0 0.0 0.0 0.0 0.0 0.0
 0.0 0.0 -0.1414627320177909 0.018573878889914724 0.0 0.0 0.0 0.0
12.435171 0.0 0.0 0.0 0.0 -0.13627542287445385 0.041316876038675 0.0 0.0
 0.0 0.0 0.0 0.0 0.0 0.0 -0.13627542287445385 0.041316876038675
 -0.13627542287445385 0.041316876038675 0.0 0.0 0.0 0.0 0.0 0.0
 0.0 0.0 -0.13627542287445385 0.041316876038675 0.0 0.0 0.0 0.0
12.45017 0.0 0.0 0.0 0.0 -0.1274653176776849 0.06286780786884093 0.0 0.0
 0.0 0.0 0.0 0.0 0.0 0.0 -0.1274653176776849 0.06286780786884093
 -0.1274653176776849 0.06286780786884093 0.0 0.0 0.0 0.0 0.0 0.0
 0.0 0.0 -0.1274653176776849 0.06286780786884093 0.0 0.0 0.0 0.0
12.465169 0.0 0.0 0.0 0.0 -0.11528181039932607 0.08265516612776214 0.0 0.0
 0.0 0.0 0.0 0.0 0.0 0.0 -0.11528181039932607 0.08265516612776214
 -0.11528181039932607 0.08265516612776214 0.0 0.0 0.0 0.0 0.0 0.0
 0.0 0.0 -0.11528181039932607 0.08265516612776214 0.0 0.0 0.0 0.0
12.480168 0.0 0.0 0.0 0.0 -0.10006351801842263 0.10015676545315062 0.0 0.0
 0.0 0.0 0.0 0.0 0.0 0.0 -0.10006351801842263 0.10015676545315062
 -0.10006351801842263 0.10015676545315062 0.0 0.0 0.0 0.0 0.0 0.0
 0.0 0.0 -0.10006351801842263 0.10015676545315062 0.0 0.0 0.0 0.0
12.495167 0.0 0.0 0.0 0.0 -0.08222889013739738 0.11491351466427216 0.0 0.0
 0.0 0.0 0.0 0.0 0.0 0.0 -0.08222889013739738 0.11491351466427216
 -0.08222889013739738 0.11491351466427216 0.0 0.0 0.0 0.0 0.0 0.0
 0.0 0.0 -0.08222889013739738 0.11491351466427216 0.0 0.0 0.0 0.0
12.510166 0.0 0.0 0.0 0.0 -0.062264720067207555 0.1265414494430741 0.0 0.0
 0.0 0.0 0.0 0.0 0.0 0.0 -0.062264720067207555 0.1265414494430741
 -0.062264720067207555 0.1265414494430741 0.0 0.0 0.0 0.0 0.0 0.0
 0.0 0.0 -0.062264720067207555 0.1265414494430741 0.0 0.0 0.0 0.0
12.525165 0.0 0.0 0.0 0.0 -0.04071287238270358 0.13474171129548 0.0 0.0
 0.0 0.0 0.0 0.0 0.0 0.0 -0.04071287238270358 0.13474171129548
 -0.04071287238270358 0.13474171129548 0.0 0.0 0.0 0.0 0.0 0.0
 0.0 0.0 -0.04071287238270358 0.13474171129548 0.0 0.0 0.0 0.0
12.540164 0.0 0.0 0.0 0.0 -0.018155588446575117 0.1393082137600994 0.0 0.0
 0.0 0.0 0.0 0.0 0.0 0.0 -0.018155588446575117 0.1393082137600994
 -0.018155588446575117 0.1393082137600994 0.0 0.0 0.0 0.0 0.0 0.0
 0.0 0.0 -0.018155588446575117 0.1393082137600994 0.0 0.0 0.0 0.0
12.555163 0.0 0.0 0.0 0.0 0.0048002319387337195 0.14013279962404918 0.0 0.0
 0.0 0.0 0.0 0.0 0.0 0.0 0.0048002319387337195 0.14013279962404918
 0.0048002319387337195 0.14013279962404918 0.0 0.0 0.0 0.0 0.0 0.0
 0.0 0.0 0.0048002319387337195 0.14013279962404918 0.0 0.0 0.0 0.0
12.570162 0.0 0.0 0.0 0.0 0.027539348710815523 0.13720776071020602 0.0 0.0
 0.0 0.0 0.0 0.0 0.0 0.0 0.027539348710815523 0.13720776071020602
 0.027539348710815523 0.13720776071020602 0.0 0.0 0.0 0.0 0.0 0.0
 0.0 0.0 0.027539348710815523 0.13720776071020602 0.0 0.0 0.0 0.0
12.585161 0.0 0.0 0.0 0.0 0.04945466106906731 0.13062566278582105 0.0 0.0
 0.0 0.0 0.0 0.0 0.0 0.0 0.04945466106906731 0.13062566278582105
 0.04945466106906731 0.13062566278582105 0.0 0.0 0.0 0.0 0.0 0.0
 0.0 0.0 0.04945466106906731 0.13062566278582105 0.0 0.0 0.0 0.0
12.60016 0.0 0.0 0.0 0.0 0.06996340717543438 0.1205764903997076 0.0 0.0
 0.0 0.0 0.0 0.0 0.0 0.0 0.06996340717543438 0.1205764903997076
 0.06996340717543438 0.1205764903997076 0.0 0.0 0.0 0.0 0.0 0.0
 0.0 0.0 0.06996340717543438 0.1205764903997076 0.0 0.0 0.0 0.0
12.615159 0.0 0.0 0.0 0.0 0.08852265200092846 0.10734219804782721 0.0 0.0
 0.0 0.0 0.0 0.0 0.0 0.0 0.08852265200092846 0.10734219804782721
 0.08852265200092846 0.10734219804782721 0.0 0.0 0.0 0.0 0.0 0.0
 0.0 0.0 0.08852265200092846 0.10734219804782721 0.0 0.0 0.0 0.0
12.630158 0.0 0.0 0.0 0.0 0.10464365193095679 0.09128882308351664 0.0 0.0
 0.0 0.0 0.0 0.0 0.0 0.0 0.10464365193095679 0.09128882308351664
 0.10464365193095679 0.09128882308351664 0.0 0.0 0.0 0.0 0.0 0.0
 0.0 0.0 0.10464365193095679 0.09128882308351664 0.0 0.0 0.0 0.0
12.645157 0.0 0.0 0.0 0.0 0.11790471630938291 0.07285638039355753 0.0 0.0
 0.0 0.0 0.0 0.0 0.0 0.0 0.11790471630938291 0.07285638039355753
 0.11790471630938291 0.07285638039355753 0.0 0.0 0.0 0.0 0.0 0.0
 0.0 0.0 0.11790471630938291 0.07285638039355753 0.0 0.0 0.0 0.0
12.660156 0.0 0.0 0.0 0.0 0.12796222770563456 0.05254681734354294 0.0 0.0
 0.0 0.0 0.0 0.0 0.0 0.0 0.12796222770563456 0.05254681734354294
 0.12796222770563456 0.05254681734354294 0.0 0.0 0.0 0.0 0.0 0.0
 0.0 0.0 0.12796222770563456 0.05254681734354294 0.0 0.0 0.0 0.0
12.675155 0.0 0.0 0.0 0.0 0.13455953318061903 0.030910358315216137 0.0 0.0
 0.0 0.0 0.0 0.0 0.0 0.0 0.13455953318061903 0.030910358315216137
 0.13455953318061903 0.030910358315216137 0.0 0.0 0.0 0.0 0.0 0.0
 0.0 0.0 0.13455953318061903 0.030910358315216137 0.0 0.0 0.0 0.0
12.690154 0.0 0.0 0.0 0.0 0.13753347682372652 0.008530609983793952 0.0 0.0
 0.0 0.0 0.0 0.0 0.0 0.0 0.13753347682372652 0.008530609983793952
 0.13753347682372652 0.008530609983793952 0.0 0.0 0.0 0.0 0.0 0.0
 0.0 0.0 0.13753347682372652 0.008530609983793952 0.0 0.0 0.0 0.0
12.705153 0.0 0.0 0.0 0.0 0.1368184077559043 -0.013991169769658503 0.0 0.0
 0.0 0.0 0.0 0.0 0.0 0.0 0.1368184077559043 -0.013991169769658503
 0.1368184077559043 -0.013991169769658503 0.0 0.0 0.0 0.0 0.0 0.0
 0.0 0.0 0.1368184077559043 -0.013991169769658503 0.0 0.0 0.0 0.0
12.720152 0.0 0.0 0.0 0.0 0.1324475659120632 -0.03605221555913181 0.0 0.0
 0.0 0.0 0.0 0.0 0.0 0.0 0.1324475659120632 -0.03605221555913181
 0.1324475659120632 -0.03605221555913181 0.0 0.0 0.0 0.0 0.0 0.0
 0.0 0.0 0.1324475659120632 -0.03605221555913181 0.0 0.0 0.0 0.0
12.735151 0.0 0.0 0.0 0.0 0.12455181839292645 -0.05706437760643823 0.0 0.0
 0.0 0.0 0.0 0.0 0.0 0.0 0.12455181839292645 -0.05706437760643823
 0.12455181839292645 -0.05706437760643823 0.0 0.0 0.0 0.0 0.0 0.0
 0.0 0.0 0.12455181839292645 -0.05706437760643823 0.0 0.0 0.0 0.0
12.75015 0.0 0.0 0.0 0.0 0.1133557901189358 -0.07646979323334122 0.0 0.0
 0.0 0.0 0.0 0.0 0.0 0.0 0.1133557901189358 -0.07646979323334122
 0.1133557901189358 -0.07646979323334122 0.0 0.0 0.0 0.0 0.0 0.0
 0.0 0.0 0.1133557901189358 -0.07646979323334122 0.0 0.0 0.0 0.0
12.765149 0.0 0.0 0.0 0.0 0.09917150202831407 -0.09375568938570585 0.0 0.0
 0.0 0.0 0.0 0.0 0.0 0.0 0.09917150202831407 -0.09375568938570585
 0.09917150202831407 -0.09375568938570585 0.0 0.0 0.0 0.0 0.0 0.0
 0.0 0.0 0.09917150202831407 -0.09375568938570585 0.0 0.0 0.0 0.0
12.780148 0.0 0.0 0.0 0.0 0.08238969628472484 -0.10846792363633674 0.0 0.0
 0.0 0.0 0.0 0.0 0.0 0.0 0.08238969628472484 -0.10846792363633674
 0.08238969628472484 -0.10846792363633674 0.0 0.0 0.0 0.0 0.0 0.0
 0.0 0.0 0.08238969628472484 -0.10846792363633674 0.0 0.0 0.0 0.0
12.795147 0.0 0.0 0.0 0.0 0.06346908913838331 -0.12022290631160616 0.0 0.0
 0.0 0.0 0.0 0.0 0.0 0.0 0.06346908913838331 -0.12022290631160616
 0.06346908913838331 -0.12022290631160616 0.0 0.0 0.0 0.0 0.0 0.0
 0.0 0.0 0.06346908913838331 -0.12022290631160616 0.0 0.0 0.0 0.0
12.810146 0.0 0.0 0.0 0.0 0.04292384660102793 -0.1287175910099803 0.0 0.0
 0.0 0.0 0.0 0.0 0.0 0.0 0.04292384660102793 -0.1287175910099803
 0.04292384660102793 -0.1287175910099803 0.0 0.0 0.0 0.0 0.0 0.0
 0.0 0.0 0.04292384660102793 -0.1287175910099803 0.0 0.0 0.0 0.0
12.825145 0.0 0.0 0.0 0.0 0.0213096245164633 -0.13373727360053433 0.0 0.0
 0.0 0.0 0.0 0.0 0.0 0.0 0.0213096245164633 -0.13373727360053433
 0.0213096245164633 -0.13373727360053433 0.0 0.0 0.0 0.0 0.0 0.0
 0.0 0.0 0.0213096245164633 -0.13373727360053433 0.0 0.0 0.0 0.0
12.840144 0.0 0.0 0.0 0.0 -0.0007914482768194875 -0.13516099936346726 0.0 0.0
 0.0 0.0 0.0 0.0 0.0 0.0 -0.0007914482768194875 -0.13516099936346726
 -0.0007914482768194875 -0.13516099936346726 0.0 0.0 0.0 0.0 0.0 0.0
 0.0 0.0 -0.0007914482768194875 -0.13516099936346726 0.0 0.0 0.0 0.0
12.855143 0.0 0.0 0.0 0.0 -0.022786438144256318 -0.13296444264459908 0.0 0.0
 0.0 0.0 0.0 0.0 0.0 0.0 -0.022786438144256318 -0.13296444264459908
 -0.022786438144256318 -0.13296444264459908 0.0 0.0 0.0 0.0 0.0 0.0
 0.0 0.0 -0.022786438144256318 -0.13296444264459908 0.0 0.0 0.0 0.0
12.870142 0.0 0.0 0.0 0.0 -0.04408750476286724 -0.12722019149247737 0.0 0.0
 0.0 0.0 0.0 0.0 0.0 0.0 -0.04408750476286724 -0.12722019149247737
 -0.04408750476286724 -0.12722019149247737 0.0 0.0 0.0 0.0 0.0 0.0
 0.0 0.0 -0.04408750476286724 -0.12722019149247737 0.0 0.0 0.0 0.0
12.885141 0.0 0.0 0.0 0.0 -0.06412760311006044 -0.11809543939643133 0.0 0.0
 0.0 0.0 0.0 0.0 0.0 0.0 -0.06412760311006044 -0.11809543939643133
 -0.06412760311006044 -0.11809543939643133 0.0 0.0 0.0 0.0 0.0 0.0
 0.0 0.0 -0.06412760311006044 -0.11809543939643133 0.0 0.0 0.0 0.0
12.90014 0.0 0.0 0.0 0.0 -0.08237557013971027 -0.10584715557847509 0.0 0.0
 0.0 0.0 0.0 0.0 0.0 0.0 -0.08237557013971027 -0.10584715557847509
 -0.08237557013971027 -0.10584715557847509 0.0 0.0 0.0 0.0 0.0 0.0
 0.0 0.0 -0.08237557013971027 -0.10584715557847509 0.0 0.0 0.0 0.0
12.915139 0.0 0.0 0.0 0.0 -0.09835019497148496 -0.0908148724581423 0.0 0.0
 0.0 0.0 0.0 0.0 0.0 0.0 -0.09835019497148496 -0.0908148724581423
 -0.09835019497148496 -0.0908148724581423 0.0 0.0 0.0 0.0 0.0 0.0
 0.0 0.0 -0.09835019497148496 -0.0908148724581423 0.0 0.0 0.0 0.0
12.930138 0.0 0.0 0.0 0.0 -0.11163290010052422 -0.07341129211930016 0.0 0.0
 0.0 0.0 0.0 0.0 0.0 0.0 -0.11163290010052422 -0.07341129211930016
 -0.11163290010052422 -0.07341129211930016 0.0 0.0 0.0 0.0 0.0 0.0
 0.0 0.0 -0.11163290010052422 -0.07341129211930016 0.0 0.0 0.0 0.0
12.945137 0.0 0.0 0.0 0.0 -0.12187869967210122 -0.05411097118518593 0.0 0.0
 0.0 0.0 0.0 0.0 0.0 0.0 -0.12187869967210122 -0.05411097118518593
 -0.12187869967210122 -0.05411097118518593 0.0 0.0 0.0 0.0 0.0 0.0
 0.0 0.0 -0.12187869967210122 -0.05411097118518593 0.0 0.0 0.0 0.0
12.960136 0.0 0.0 0.0 0.0 -0.1288251481911793 -0.03343739393426568 0.0 0.0
 0.0 0.0 0.0 0.0 0.0 0.0 -0.1288251481911793 -0.03343739393426568
 -0.1288251481911793 -0.03343739393426568 0.0 0.0 0.0 0.0 0.0 0.0
 0.0 0.0 -0.1288251481911793 -0.03343739393426568 0.0 0.0 0.0 0.0
12.975135 0.0 0.0 0.0 0.0 -0.1322990478531664 -0.011948785441586705 0.0 0.0
 0.0 0.0 0.0 0.0 0.0 0.0 -0.1322990478531664 -0.011948785441586705
 -0.1322990478531664 -0.011948785441586705 0.0 0.0 0.0 0.0 0.0 0.0
 0.0 0.0 -0.1322990478531664 -0.011948785441586705 0.0 0.0 0.0 0.0
12.990134 0.0 0.0 0.0 0.0 -0.13222074349468935 0.009776951081350823 0.0 0.0
 0.0 0.0 0.0 0.0 0.0 0.0 -0.13222074349468935 0.009776951081350823
 -0.13222074349468935 0.009776951081350823 0.0 0.0 0.0 0.0 0.0 0.0
 0.0 0.0 -0.13222074349468935 0.009776951081350823 0.0 0.0 0.0 0.0
13.005133 0.0 0.0 0.0 0.0 -0.12860589932418232 0.031157766582864205 0.0 0.0
 0.0 0.0 0.0 0.0 0.0 0.0 -0.12860589932418232 0.031157766582864205
 -0.12860589932418232 0.031157766582864205 0.0 0.0 0.0 0.0 0.0 0.0
 0.0 0.0 -0.12860589932418232 0.031157766582864205 0.0 0.0 0.0 0.0
13.020132 0.0 0.0 0.0 0.0 -0.12156471934198713 0.05162305089031636 0.0 0.0
 0.0 0.0 0.0 0.0 0.0 0.0 -0.12156471934198713 0.05162305089031636
 -0.12156471934198713 0.05162305089031636 0.0 0.0 0.0 0.0 0.0 0.0
 0.0 0.0 -0.12156471934198713 0.05162305089031636 0.0 0.0 0.0 0.0
13.035131 0.0 0.0 0.0 0.0 -0.11129864187731733 0.07062885279216441 0.0 0.0
 0.0 0.0 0.0 0.0 0.0 0.0 -0.11129864187731733 0.07062885279216441
 -0.11129864187731733 0.07062885279216441 0.0 0.0 0.0 0.0 0.0 0.0
 0.0 0.0 -0.11129864187731733 0.07062885279216441 0.0 0.0 0.0 0.0
13.05013 0.0 0.0 0.0 0.0 -0.09809460611898224 0.08767232973033756 0.0 0.0
 0.0 0.0 0.0 0.0 0.0 0.0 -0.09809460611898224 0.08767232973033756
 -0.09809460611898224 0.08767232973033756 0.0 0.0 0.0 0.0 0.0 0.0
 0.0 0.0 -0.09809460611898224 0.08767232973033756 0.0 0.0 0.0 0.0
13.065129 0.0 0.0 0.0 0.0 -0.08231705309839864 0.10230504346919189 0.0 0.0
 0.0 0.0 0.0 0.0 0.0 0.0 -0.08231705309839864 0.10230504346919189
 -0.08231705309839864 0.10230504346919189 0.0 0.0 0.0 0.0 0.0 0.0
 0.0 0.0 -0.08231705309839864 0.10230504346919189 0.0 0.0 0.0 0.0
13.080128 0.0 0.0 0.0 0.0 -0.0643978835797229 0.11414475040633669 0.0 0.0
 0.0 0.0 0.0 0.0 0.0 0.0 -0.0643978835797229 0.11414475040633669
 -0.0643978835797229 0.11414475040633669 0.0 0.0 0.0 0.0 0.0 0.0
 0.0 0.0 -0.0643978835797229 0.11414475040633669 0.0 0.0 0.0 0.0
13.095127 0.0 0.0 0.0 0.0 -0.04482464913576678 0.12288537676716603 0.0 0.0
 0.0 0.0 0.0 0.0 0.0 0.0 -0.04482464913576678 0.12288537676716603
 -0.04482464913576678 0.12288537676716603 0.0 0.0 0.0 0.0 0.0 0.0
 0.0 0.0 -0.04482464913576678 0.12288537676716603 0.0 0.0 0.0 0.0
13.110126 0.0 0.0 0.0 0.0 -0.02412729892174707 0.1283049186340641 0.0 0.0
 0.0 0.0 0.0 0.0 0.0 0.0 -0.02412729892174707 0.1283049186340641
 -0.02412729892174707 0.1283049186340641 0.0 0.0 0.0 0.0 0.0 0.0
 0.0 0.0 -0.02412729892174707 0.1283049186340641 0.0 0.0 0.0 0.0
13.125125 0.0 0.0 0.0 0.0 -0.0028638420942535673 0.13027106324196744 0.0 0.0
 0.0 0.0 0.0 0.0 0.0 0.0 -0.0028638420942535673 0.13027106324196744
 -0.0028638420942535673 0.13027106324196744 0.0 0.0 0.0 0.0 0.0 0.0
 0.0 0.0 -0.0028638420942535673 0.13027106324196744 0.0 0.0 0.0 0.0
13.140124 0.0 0.0 0.0 0.0 0.018394686510144715 0.12874438968946722 0.0 0.0
 0.0 0.0 0.0 0.0 0.0 0.0 0.018394686510144715 0.12874438968946722
 0.018394686510144715 0.12874438968946722 0.0 0.0 0.0 0.0 0.0 0.0
 0.0 0.0 0.018394686510144715 0.12874438968946722 0.0 0.0 0.0 0.0
13.155123 0.0 0.0 0.0 0.0 0.03907955262617912 0.12377907249781851 0.0 0.0
 0.0 0.0 0.0 0.0 0.0 0.0 0.03907955262617912 0.12377907249781851
 0.03907955262617912 0.12377907249781851 0.0 0.0 0.0 0.0 0.0 0.0
 0.0 0.0 0.03907955262617912 0.12377907249781851 0.0 0.0 0.0 0.0
13.170122 0.0 0.0 0.0 0.0 0.058639529628491754 0.11552107854008284 0.0 0.0
 0.0 0.0 0.0 0.0 0.0 0.0 0.058639529628491754 0.11552107854008284
 0.058639529628491754 0.11552107854008284 0.0 0.0 0.0 0.0 0.0 0.0
 0.0 0.0 0.058639529628491754 0.11552107854008284 0.0 0.0 0.0 0.0
13.185121 0.0 0.0 0.0 0.0 0.07655558002366655 0.10420391495741615 0.0 0.0
 0.0 0.0 0.0 0.0 0.0 0.0 0.07655558002366655 0.10420391495741615
 0.07655558002366655 0.10420391495741615 0.0 0.0 0.0 0.0 0.0 0.0
 0.0 0.0 0.07655558002366655 0.10420391495741615 0.0 0.0 0.0 0.0
13.20012 0.0 0.0 0.0 0.0 0.09235462054598492 0.09014205098432115 0.0 0.0
 0.0 0.0 0.0 0.0 0.0 0.0 0.09235462054598492 0.09014205098432115
 0.09235462054598492 0.09014205098432115 0.0 0.0 0.0 0.0 0.0 0.0
 0.0 0.0 0.09235462054598492 0.09014205098432115 0.0 0.0 0.0 0.0
13.215119 0.0 0.0 0.0 0.0 0.10562200600874652 0.07372219837920196 0.0 0.0
 0.0 0.0 0.0 0.0 0.0 0.0 0.10562200600874652 0.07372219837920196
 0.10562200600874652 0.07372219837920196 0.0 0.0 0.0 0.0 0.0 0.0
 0.0 0.0 0.10562200600874652 0.07372219837920196 0.0 0.0 0.0 0.0
13.230118 0.0 0.0 0.0 0.0 0.1160124027001351 0.05539269176070336 0.0 0.0
 0.0 0.0 0.0 0.0 0.0 0.0 0.1160124027001351 0.05539269176070336
 0.1160124027001351 0.05539269176070336 0.0 0.0 0.0 0.0 0.0 0.0
 0.0 0.0 0.1160124027001351 0.05539269176070336 0.0 0.0 0.0 0.0
13.245117 0.0 0.0 0.0 0.0 0.12325876642511027 0.035651260089267375 0.0 0.0
 0.0 0.0 0.0 0.0 0.0 0.0 0.12325876642511027 0.035651260089267375
 0.12325876642511027 0.035651260089267375 0.0 0.0 0.0 0.0 0.0 0.0
 0.0 0.0 0.12325876642511027 0.035651260089267375 0.0 0.0 0.0 0.0
13.260116 0.0 0.0 0.0 0.0 0.12717919206600714 0.015031522495171017 0.0 0.0
 0.0 0.0 0.0 0.0 0.0 0.0 0.12717919206600714 0.015031522495171017
 0.12717919206600714 0.015031522495171017 0.0 0.0 0.0 0.0 0.0 0.0
 0.0 0.0 0.12717919206600714 0.015031522495171017 0.0 0.0 0.0 0.0
13.275115 0.0 0.0 0.0 0.0 0.1276814593514167 -0.005911425454297775 0.0 0.0
 0.0 0.0 0.0 0.0 0.0 0.0 0.1276814593514167 -0.005911425454297775
 0.1276814593514167 -0.005911425454297775 0.0 0.0 0.0 0.0 0.0 0.0
 0.0 0.0 0.1276814593514167 -0.005911425454297775 0.0 0.0 0.0 0.0
13.290114 0.0 0.0 0.0 0.0 0.12476516181627478 -0.02661594598091064 0.0 0.0
 0.0 0.0 0.0 0.0 0.0 0.0 0.12476516181627478 -0.02661594598091064
 0.12476516181627478 -0.02661594598091064 0.0 0.0 0.0 0.0 0.0 0.0
 0.0 0.0 0.12476516181627478 -0.02661594598091064 0.0 0.0 0.0 0.0
13.305113 0.0 0.0 0.0 0.0 0.11852137102301342 -0.04652891226814723 0.0 0.0
 0.0 0.0 0.0 0.0 0.0 0.0 0.11852137102301342 -0.04652891226814723
 0.11852137102301342 -0.04652891226814723 0.0 0.0 0.0 0.0 0.0 0.0
 0.0 0.0 0.11852137102301342 -0.04652891226814723 0.0 0.0 0.0 0.0
13.320112 0.0 0.0 0.0 0.0 0.10912985424198425 -0.06512047734407965 0.0 0.0
 0.0 0.0 0.0 0.0 0.0 0.0 0.10912985424198425 -0.06512047734407965
 0.10912985424198425 -0.06512047734407965 0.0 0.0 0.0 0.0 0.0 0.0
 0.0 0.0 0.10912985424198425 -0.06512047734407965 0.0 0.0 0.0 0.0
13.335111 0.0 0.0 0.0 0.0 0.0968539291861002 -0.08189816454538634 0.0 0.0
 0.0 0.0 0.0 0.0 0.0 0.0 0.0968539291861002 -0.08189816454538634
 0.0968539291861002 -0.08189816454538634 0.0 0.0 0.0 0.0 0.0 0.0
 0.0 0.0 0.0968539291861002 -0.08189816454538634 0.0 0.0 0.0 0.0
13.35011 0.0 0.0 0.0 0.0 0.08203310231273395 -0.09641990505194867 0.0 0.0
 0.0 0.0 0.0 0.0 0.0 0.0 0.08203310231273395 -0.09641990505194867
 0.08203310231273395 -0.09641990505194867 0.0 0.0 0.0 0.0 0.0 0.0
 0.0 0.0 0.08203310231273395 -0.09641990505194867 0.0 0.0 0.0 0.0
13.365109 0.0 0.0 0.0 0.0 0.06507369597036525 -0.10830567754993993 0.0 0.0
 0.0 0.0 0.0 0.0 0.0 0.0 0.06507369597036525 -0.10830567754993993
 0.06507369597036525 -0.10830567754993993 0.0 0.0 0.0 0.0 0.0 0.0
 0.0 0.0 0.06507369597036525 -0.10830567754993993 0.0 0.0 0.0 0.0
13.380108 0.0 0.0 0.0 0.0 0.04643772272214218 -0.11724744376954174 0.0 0.0
 0.0 0.0 0.0 0.0 0.0 0.0 0.04643772272214218 -0.11724744376954174
 0.04643772272214218 -0.11724744376954174 0.0 0.0 0.0 0.0 0.0 0.0
 0.0 0.0 0.04643772272214218 -0.11724744376954174 0.0 0.0 0.0 0.0
13.395107 0.0 0.0 0.0 0.0 0.02663031112324508 -0.12301712038490582 0.0 0.0
 0.0 0.0 0.0 0.0 0.0 0.0 0.02663031112324508 -0.12301712038490582
 0.02663031112324508 -0.12301712038490582 0.0 0.0 0.0 0.0 0.0 0.0
 0.0 0.0 0.02663031112324508 -0.12301712038490582 0.0 0.0 0.0 0.0
13.410106 0.0 0.0 0.0 0.0 0.006186024862242994 -0.12547238127614171 0.0 0.0
 0.0 0.0 0.0 0.0 0.0 0.0 0.006186024862242994 -0.12547238127614171
 0.006186024862242994 -0.12547238127614171 0.0 0.0 0.0 0.0 0.0 0.0
 0.0 0.0 0.006186024862242994 -0.12547238127614171 0.0 0.0 0.0 0.0
13.425105 0.0 0.0 0.0 0.0 -0.01434555447990568 -0.12456014298084263 0.0 0.0
 0.0 0.0 0.0 0.0 0.0 0.0 -0.01434555447990568 -0.12456014298084263
 -0.01434555447990568 -0.12456014298084263 0.0 0.0 0.0 0.0 0.0 0.0
 0.0 0.0 -0.01434555447990568 -0.12456014298084263 0.0 0.0 0.0 0.0
13.440104 0.0 0.0 0.0 0.0 -0.034414592468450765 -0.12031764871085468 0.0 0.0
 0.0 0.0 0.0 0.0 0.0 0.0 -0.034414592468450765 -0.12031764871085468
 -0.034414592468450765 -0.12031764871085468 0.0 0.0 0.0 0.0 0.0 0.0
 0.0 0.0 -0.034414592468450765 -0.12031764871085468 0.0 0.0 0.0 0.0
13.455103 0.0 0.0 0.0 0.0 -0.053485718202821234 -0.11287113089188539 0.0 0.0
 0.0 0.0 0.0 0.0 0.0 0.0 -0.053485718202821234 -0.11287113089188539
 -0.053485718202821234 -0.11287113089188539 0.0 0.0 0.0 0.0 0.0 0.0
 0.0 0.0 -0.053485718202821234 -0.11287113089188539 0.0 0.0 0.0 0.0
13.470102 0.0 0.0 0.0 0.0 -0.07105229838053835 -0.10243209706293768 0.0 0.0
 0.0 0.0 0.0 0.0 0.0 0.0 -0.07105229838053835 -0.10243209706293768
 -0.07105229838053835 -0.10243209706293768 0.0 0.0 0.0 0.0 0.0 0.0
 0.0 0.0 -0.07105229838053835 -0.10243209706293768 0.0 0.0 0.0 0.0
13.485101 0.0 0.0 0.0 0.0 -0.08664988866442287 -0.08929134741217576 0.0 0.0
 0.0 0.0 0.0 0.0 0.0 0.0 -0.08664988866442287 -0.08929134741217576
 -0.08664988866442287 -0.08929134741217576 0.0 0.0 0.0 0.0 0.0 0.0
 0.0 0.0 -0.08664988866442287 -0.08929134741217576 0.0 0.0 0.0 0.0
13.5001 0.0 0.0 0.0 0.0 -0.09986850541156618 -0.07381089253324072 0.0 0.0
 0.0 0.0 0.0 0.0 0.0 0.0 -0.09986850541156618 -0.07381089253324072
 -0.09986850541156618 -0.07381089253324072 0.0 0.0 0.0 0.0 0.0 0.0
 0.0 0.0 -0.09986850541156618 -0.07381089253324072 0.0 0.0 0.0 0.0
13.515099 0.0 0.0 0.0 0.0 -0.11036339372061418 -0.056413995558432475 0.0 0.0
 0.0 0.0 0.0 0.0 0.0 0.0 -0.11036339372061418 -0.056413995558432475
 -0.11036339372061418 -0.056413995558432475 0.0 0.0 0.0 0.0 0.0 0.0
 0.0 0.0 -0.11036339372061418 -0.056413995558432475 0.0 0.0 0.0 0.0
13.530098 0.0 0.0 0.0 0.0 -0.11786400920268889 -0.03757361219307421 0.0 0.0
 0.0 0.0 0.0 0.0 0.0 0.0 -0.11786400920268889 -0.03757361219307421
 -0.11786400920268889 -0.03757361219307421 0.0 0.0 0.0 0.0 0.0 0.0
 0.0 0.0 -0.11786400920268889 -0.03757361219307421 0.0 0.0 0.0 0.0
13.545097 0.0 0.0 0.0 0.0 -0.12218097974077177 -0.017799544039987514 0.0 0.0
 0.0 0.0 0.0 0.0 0.0 0.0 -0.12218097974077177 -0.017799544039987514
 -0.12218097974077177 -0.017799544039987514 0.0 0.0 0.0 0.0 0.0 0.0
 0.0 0.0 -0.12218097974077177 -0.017799544039987514 0.0 0.0 0.0 0.0
13.560096 0.0 0.0 0.0 0.0 -0.12321086843725856 0.0023753461286602343 0.0 0.0
 0.0 0.0 0.0 0.0 0.0 0.0 -0.12321086843725856 0.0023753461286602343
 -0.12321086843725856 0.0023753461286602343 0.0 0.0 0.0 0.0 0.0 0.0
 0.0 0.0 -0.12321086843725856 0.0023753461286602343 0.0 0.0 0.0 0.0
13.575095 0.0 0.0 0.0 0.0 -0.12093861846694247 0.022409484681074135 0.0 0.0
 0.0 0.0 0.0 0.0 0.0 0.0 -0.12093861846694247 0.022409484681074135
 -0.12093861846694247 0.022409484681074135 0.0 0.0 0.0 0.0 0.0 0.0
 0.0 0.0 -0.12093861846694247 0.022409484681074135 0.0 0.0 0.0 0.0
13.590094 0.0 0.0 0.0 0.0 -0.11543762304329458 0.04176711679058235 0.0 0.0
 0.0 0.0 0.0 0.0 0.0 0.0 -0.11543762304329458 0.04176711679058235
 -0.11543762304329458 0.04176711679058235 0.0 0.0 0.0 0.0 0.0 0.0
 0.0 0.0 -0.11543762304329458 0.04176711679058235 0.0 0.0 0.0 0.0
13.605093 0.0 0.0 0.0 0.0 -0.10686742748571942 0.05993262586125724 0.0 0.0
 0.0 0.0 0.0 0.0 0.0 0.0 -0.10686742748571942 0.05993262586125724
 -0.10686742748571942 0.05993262586125724 0.0 0.0 0.0 0.0 0.0 0.0
 0.0 0.0 -0.10686742748571942 0.05993262586125724 0.0 0.0 0.0 0.0
13.620092 0.0 0.0 0.0 0.0 -0.09546913373275537 0.07642426019451443 0.0 0.0
 0.0 0.0 0.0 0.0 0.0 0.0 -0.09546913373275537 0.07642426019451443
 -0.09546913373275537 0.07642426019451443 0.0 0.0 0.0 0.0 0.0 0.0
 0.0 0.0 -0.09546913373275537 0.07642426019451443 0.0 0.0 0.0 0.0
13.635091 0.0 0.0 0.0 0.0 -0.08155863888657333 0.09080690166316537 0.0 0.0
 0.0 0.0 0.0 0.0 0.0 0.0 -0.08155863888657333 0.09080690166316537
 -0.08155863888657333 0.09080690166316537 0.0 0.0 0.0 0.0 0.0 0.0
 0.0 0.0 -0.08155863888657333 0.09080690166316537 0.0 0.0 0.0 0.0
13.65009 0.0 0.0 0.0 0.0 -0.06551789686592949 0.10270353815938796 0.0 0.0
 0.0 0.0 0.0 0.0 0.0 0.0 -0.06551789686592949 0.10270353815938796
 -0.06551789686592949 0.10270353815938796 0.0 0.0 0.0 0.0 0.0 0.0
 0.0 0.0 -0.06551789686592949 0.10270353815938796 0.0 0.0 0.0 0.0
13.665089 0.0 0.0 0.0 0.0 -0.047784444463209126 0.11180513753685128 0.0 0.0
 0.0 0.0 0.0 0.0 0.0 0.0 -0.047784444463209126 0.11180513753685128
 -0.047784444463209126 0.11180513753685128 0.0 0.0 0.0 0.0 0.0 0.0
 0.0 0.0 -0.047784444463209126 0.11180513753685128 0.0 0.0 0.0 0.0
13.680088 0.0 0.0 0.0 0.0 -0.028839478667123476 0.11787866468072555 0.0 0.0
 0.0 0.0 0.0 0.0 0.0 0.0 -0.028839478667123476 0.11787866468072555
 -0.028839478667123476 0.11787866468072555 0.0 0.0 0.0 0.0 0.0 0.0
 0.0 0.0 -0.028839478667123476 0.11787866468072555 0.0 0.0 0.0 0.0
13.695087 0.0 0.0 0.0 0.0 -0.009194809831660303 0.12077303400652457 0.0 0.0
 0.0 0.0 0.0 0.0 0.0 0.0 -0.009194809831660303 0.12077303400652457
 -0.009194809831660303 0.12077303400652457 0.0 0.0 0.0 0.0 0.0 0.0
 0.0 0.0 -0.009194809831660303 0.12077303400652457 0.0 0.0 0.0 0.0
13.710086 0.0 0.0 0.0 0.0 0.010620955837819673 0.1204228457295863 0.0 0.0
 0.0 0.0 0.0 0.0 0.0 0.0 0.010620955837819673 0.1204228457295863
 0.010620955837819673 0.1204228457295863 0.0 0.0 0.0 0.0 0.0 0.0
 0.0 0.0 0.010620955837819673 0.1204228457295863 0.0 0.0 0.0 0.0
13.725085 0.0 0.0 0.0 0.0 0.03007663168943469 0.11684981414082483 0.0 0.0
 0.0 0.0 0.0 0.0 0.0 0.0 0.03007663168943469 0.11684981414082483
 0.03007663168943469 0.11684981414082483 0.0 0.0 0.0 0.0 0.0 0.0
 0.0 0.0 0.03007663168943469 0.11684981414082483 0.0 0.0 0.0 0.0
13.740084 0.0 0.0 0.0 0.0 0.0486526818588365 0.11016185825389033 0.0 0.0
 0.0 0.0 0.0 0.0 0.0 0.0 0.0486526818588365 0.11016185825389033
 0.0486526818588365 0.11016185825389033 0.0 0.0 0.0 0.0 0.0 0.0
 0.0 0.0 0.0486526818588365 0.11016185825389033 0.0 0.0 0.0 0.0
13.755083 0.0 0.0 0.0 0.0 0.06585508726396606 0.10054988788260309 0.0 0.0
 0.0 0.0 0.0 0.0 0.0 0.0 0.06585508726396606 0.10054988788260309
 0.06585508726396606 0.10054988788260309 0.0 0.0 0.0 0.0 0.0 0.0
 0.0 0.0 0.06585508726396606 0.10054988788260309 0.0 0.0 0.0 0.0
13.770082 0.0 0.0 0.0 0.0 0.08122847648354586 0.08828237978478323 0.0 0.0
 0.0 0.0 0.0 0.0 0.0 0.0 0.08122847648354586 0.08828237978478323
 0.08122847648354586 0.08828237978478323 0.0 0.0 0.0 0.0 0.0 0.0
 0.0 0.0 0.08122847648354586 0.08828237978478323 0.0 0.0 0.0 0.0
13.785081 0.0 0.0 0.0 0.0 0.09436817269516036 0.07369789732512481 0.0 0.0
 0.0 0.0 0.0 0.0 0.0 0.0 0.09436817269516036 0.07369789732512481
 0.09436817269516036 0.07369789732512481 0.0 0.0 0.0 0.0 0.0 0.0
 0.0 0.0 0.09436817269516036 0.07369789732512481 0.0 0.0 0.0 0.0
13.80008 0.0 0.0 0.0 0.0 0.10493083816342394 0.057195761600800955 0.0 0.0
 0.0 0.0 0.0 0.0 0.0 0.0 0.10493083816342394 0.057195761600800955
 0.10493083816342394 0.057195761600800955 0.0 0.0 0.0 0.0 0.0 0.0
 0.0 0.0 0.10493083816342394 0.057195761600800955 0.0 0.0 0.0 0.0
13.815079 0.0 0.0 0.0 0.0 0.11264343649914742 0.039225130696092333 0.0 0.0
 0.0 0.0 0.0 0.0 0.0 0.0 0.11264343649914742 0.039225130696092333
 0.11264343649914742 0.039225130696092333 0.0 0.0 0.0 0.0 0.0 0.0
 0.0 0.0 0.11264343649914742 0.039225130696092333 0.0 0.0 0.0 0.0
13.830078 0.0 0.0 0.0 0.0 0.11731027898895204 0.020272785403267886 0.0 0.0
 0.0 0.0 0.0 0.0 0.0 0.0 0.11731027898895204 0.020272785403267886
 0.11731027898895204 0.020272785403267886 0.0 0.0 0.0 0.0 0.0 0.0
 0.0 0.0 0.11731027898895204 0.020272785403267886 0.0 0.0 0.0 0.0
13.845077 0.0 0.0 0.0 0.0 0.11881797346087977 0.0008499532759302721 0.0 0.0
 0.0 0.0 0.0 0.0 0.0 0.0 0.11881797346087977 0.0008499532759302721
 0.11881797346087977 0.0008499532759302721 0.0 0.0 0.0 0.0 0.0 0.0
 0.0 0.0 0.11881797346087977 0.0008499532759302721 0.0 0.0 0.0 0.0
13.860076 0.0 0.0 0.0 0.0 0.11713815098573928 -0.01852147259892667 0.0 0.0
 0.0 0.0 0.0 0.0 0.0 0.0 0.11713815098573928 -0.01852147259892667
 0.11713815098573928 -0.01852147259892667 0.0 0.0 0.0 0.0 0.0 0.0
 0.0 0.0 0.11713815098573928 -0.01852147259892667 0.0 0.0 0.0 0.0
13.875075 0.0 0.0 0.0 0.0 0.112327905677838 -0.037322948837652234 0.0 0.0
 0.0 0.0 0.0 0.0 0.0 0.0 0.112327905677838 -0.037322948837652234
 0.112327905677838 -0.037322948837652234 0.0 0.0 0.0 0.0 0.0 0.0
 0.0 0.0 0.112327905677838 -0.037322948837652234 0.0 0.0 0.0 0.0
13.890074 0.0 0.0 0.0 0.0 0.10452794433480533 -0.05505315484210318 0.0 0.0
 0.0 0.0 0.0 0.0 0.0 0.0 0.10452794433480533 -0.05505315484210318
 0.10452794433480533 -0.05505315484210318 0.0 0.0 0.0 0.0 0.0 0.0
 0.0 0.0 0.10452794433480533 -0.05505315484210318 0.0 0.0 0.0 0.0
13.905073 0.0 0.0 0.0 0.0 0.09395850399311999 -0.07124135276439238 0.0 0.0
 0.0 0.0 0.0 0.0 0.0 0.0 0.09395850399311999 -0.07124135276439238
 0.09395850399311999 -0.07124135276439238 0.0 0.0 0.0 0.0 0.0 0.0
 0.0 0.0 0.09395850399311999 -0.07124135276439238 0.0 0.0 0.0 0.0
13.920072 0.0 0.0 0.0 0.0 0.08091315503154485 -0.08545987850568998 0.0 0.0
 0.0 0.0 0.0 0.0 0.0 0.0 0.08091315503154485 -0.08545987850568998
 0.08091315503154485 -0.08545987850568998 0.0 0.0 0.0 0.0 0.0 0.0
 0.0 0.0 0.08091315503154485 -0.08545987850568998 0.0 0.0 0.0 0.0
13.935071 0.0 0.0 0.0 0.0 0.06575066364091563 -0.09733543248826551 0.0 0.0
 0.0 0.0 0.0 0.0 0.0 0.0 0.06575066364091563 -0.09733543248826551
 0.06575066364091563 -0.09733543248826551 0.0 0.0 0.0 0.0 0.0 0.0
 0.0 0.0 0.06575066364091563 -0.09733543248826551 0.0 0.0 0.0 0.0
13.95007 0.0 0.0 0.0 0.0 0.048885138803231434 -0.10655887230787067 0.0 0.0
 0.0 0.0 0.0 0.0 0.0 0.0 0.048885138803231434 -0.10655887230787067
 0.048885138803231434 -0.10655887230787067 0.0 0.0 0.0 0.0 0.0 0.0
 0.0 0.0 0.048885138803231434 -0.10655887230787067 0.0 0.0 0.0 0.0
13.965069 0.0 0.0 0.0 0.0 0.03077473402928755 -0.11289325059571957 0.0 0.0
 0.0 0.0 0.0 0.0 0.0 0.0 0.03077473402928755 -0.11289325059571957
 0.03077473402928755 -0.11289325059571957 0.0 0.0 0.0 0.0 0.0 0.0
 0.0 0.0 0.03077473402928755 -0.11289325059571957 0.0 0.0 0.0 0.0
13.980068 0.0 0.0 0.0 0.0 0.011909211807095591 -0.11617988936318498 0.0 0.0
 0.0 0.0 0.0 0.0 0.0 0.0 0.011909211807095591 -0.11617988936318498
 0.011909211807095591 -0.11617988936318498 0.0 0.0 0.0 0.0 0.0 0.0
 0.0 0.0 0.011909211807095591 -0.11617988936318498 0.0 0.0 0.0 0.0
13.995067 0.0 0.0 0.0 0.0 -0.007203291969712485 -0.11634233545939725 0.0 0.0
 0.0 0.0 0.0 0.0 0.0 0.0 -0.007203291969712485 -0.11634233545939725
 -0.007203291969712485 -0.11634233545939725 0.0 0.0 0.0 0.0 0.0 0.0
 0.0 0.0 -0.007203291969712485 -0.11634233545939725 0.0 0.0 0.0 0.0
14.010066 0.0 0.0 0.0 0.0 -0.026049946147431946 -0.11338809909328311 0.0 0.0
 0.0 0.0 0.0 0.0 0.0 0.0 -0.026049946147431946 -0.11338809909328311
 -0.026049946147431946 -0.11338809909328311 0.0 0.0 0.0 0.0 0.0 0.0
 0.0 0.0 -0.026049946147431946 -0.11338809909328311 0.0 0.0 0.0 0.0
14.025065 0.0 0.0 0.0 0.0 -0.04412697705631552 -0.10740813710771525 0.0 0.0
 0.0 0.0 0.0 0.0 0.0 0.0 -0.04412697705631552 -0.10740813710771525
 -0.04412697705631552 -0.10740813710771525 0.0 0.0 0.0 0.0 0.0 0.0
 0.0 0.0 -0.04412697705631552 -0.10740813710771525 0.0 0.0 0.0 0.0
14.040064 0.0 0.0 0.0 0.0 -0.060953127241489435 -0.09857410323566212 0.0 0.0
 0.0 0.0 0.0 0.0 0.0 0.0 -0.060953127241489435 -0.09857410323566212
 -0.060953127241489435 -0.09857410323566212 0.0 0.0 0.0 0.0 0.0 0.0
 0.0 0.0 -0.060953127241489435 -0.09857410323566212 0.0 0.0 0.0 0.0
14.055063 0.0 0.0 0.0 0.0 -0.0760824608083066 -0.08713344729210469 0.0 0.0
 0.0 0.0 0.0 0.0 0.0 0.0 -0.0760824608083066 -0.08713344729210469
 -0.0760824608083066 -0.08713344729210469 0.0 0.0 0.0 0.0 0.0 0.0
 0.0 0.0 -0.0760824608083066 -0.08713344729210469 0.0 0.0 0.0 0.0
14.070062 0.0 0.0 0.0 0.0 -0.08911617483911327 -0.0734025025645915 0.0 0.0
 0.0 0.0 0.0 0.0 0.0 0.0 -0.08911617483911327 -0.0734025025645915
 -0.08911617483911327 -0.0734025025645915 0.0 0.0 0.0 0.0 0.0 0.0
 0.0 0.0 -0.08911617483911327 -0.0734025025645915 0.0 0.0 0.0 0.0
14.085061 0.0 0.0 0.0 0.0 -0.09971310421990932 -0.05775775403339823 0.0 0.0
 0.0 0.0 0.0 0.0 0.0 0.0 -0.09971310421990932 -0.05775775403339823
 -0.09971310421990932 -0.05775775403339823 0.0 0.0 0.0 0.0 0.0 0.0
 0.0 0.0 -0.09971310421990932 -0.05775775403339823 0.0 0.0 0.0 0.0
14.10006 0.0 0.0 0.0 0.0 -0.10759864336818782 -0.04062552806456879 0.0 0.0
 0.0 0.0 0.0 0.0 0.0 0.0 -0.10759864336818782 -0.04062552806456879
 -0.10759864336818782 -0.04062552806456879 0.0 0.0 0.0 0.0 0.0 0.0
 0.0 0.0 -0.10759864336818782 -0.04062552806456879 0.0 0.0 0.0 0.0
14.115059 0.0 0.0 0.0 0.0 -0.11257185177916126 -0.02247038560928614 0.0 0.0
 0.0 0.0 0.0 0.0 0.0 0.0 -0.11257185177916126 -0.02247038560928614
 -0.11257185177916126 -0.02247038560928614 0.0 0.0 0.0 0.0 0.0 0.0
 0.0 0.0 -0.11257185177916126 -0.02247038560928614 0.0 0.0 0.0 0.0
14.130058 0.0 0.0 0.0 0.0 -0.11451055981685306 -0.0037825346264323493 0.0 0.0
 0.0 0.0 0.0 0.0 0.0 0.0 -0.11451055981685306 -0.0037825346264323493
 -0.11451055981685306 -0.0037825346264323493 0.0 0.0 0.0 0.0 0.0 0.0
 0.0 0.0 -0.11451055981685306 -0.0037825346264323493 0.0 0.0 0.0 0.0
14.145057 0.0 0.0 0.0 0.0 -0.11337434542050534 0.014935397451645268 0.0 0.0
 0.0 0.0 0.0 0.0 0.0 0.0 -0.11337434542050534 0.014935397451645268
 -0.11337434542050534 0.014935397451645268 0.0 0.0 0.0 0.0 0.0 0.0
 0.0 0.0 -0.11337434542050534 0.014935397451645268 0.0 0.0 0.0 0.0
14.160056 0.0 0.0 0.0 0.0 -0.10920530990548431 0.03318187450888186 0.0 0.0
 0.0 0.0 0.0 0.0 0.0 0.0 -0.10920530990548431 0.03318187450888186
 -0.10920530990548431 0.03318187450888186 0.0 0.0 0.0 0.0 0.0 0.0
 0.0 0.0 -0.10920530990548431 0.03318187450888186 0.0 0.0 0.0 0.0
14.175055 0.0 0.0 0.0 0.0 -0.10212664025871965 0.05046988282093717 0.0 0.0
 0.0 0.0 0.0 0.0 0.0 0.0 -0.10212664025871965 0.05046988282093717
 -0.10212664025871965 0.05046988282093717 0.0 0.0 0.0 0.0 0.0 0.0
 0.0 0.0 -0.10212664025871965 0.05046988282093717 0.0 0.0 0.0 0.0
14.190054 0.0 0.0 0.0 0.0 -0.0923390046692165 0.0663399229244969 0.0 0.0
 0.0 0.0 0.0 0.0 0.0 0.0 -0.0923390046692165 0.0663399229244969
 -0.0923390046692165 0.0663399229244969 0.0 0.0 0.0 0.0 0.0 0.0
 0.0 0.0 -0.0923390046692165 0.0663399229244969 0.0 0.0 0.0 0.0
14.205053 0.0 0.0 0.0 0.0 -0.08011488590438963 0.08037221588289382 0.0 0.0
 0.0 0.0 0.0 0.0 0.0 0.0 -0.08011488590438963 0.08037221588289382
 -0.08011488590438963 0.08037221588289382 0.0 0.0 0.0 0.0 0.0 0.0
 0.0 0.0 -0.08011488590438963 0.08037221588289382 0.0 0.0 0.0 0.0
14.220052 0.0 0.0 0.0 0.0 -0.06579101199788782 0.09219779987666475 0.0 0.0
 0.0 0.0 0.0 0.0 0.0 0.0 -0.06579101199788782 0.09219779987666475
 -0.06579101199788782 0.09219779987666475 0.0 0.0 0.0 0.0 0.0 0.0
 0.0 0.0 -0.06579101199788782 0.09219779987666475 0.0 0.0 0.0 0.0
14.235051 0.0 0.0 0.0 0.0 -0.04975909409600397 0.10150822397253775 0.0 0.0
 0.0 0.0 0.0 0.0 0.0 0.0 -0.04975909409600397 0.10150822397253775
 -0.04975909409600397 0.10150822397253775 0.0 0.0 0.0 0.0 0.0 0.0
 0.0 0.0 -0.04975909409600397 0.10150822397253775 0.0 0.0 0.0 0.0
14.25005 0.0 0.0 0.0 0.0 -0.03245512588420137 0.10806358458889226 0.0 0.0
 0.0 0.0 0.0 0.0 0.0 0.0 -0.03245512588420137 0.10806358458889226
 -0.03245512588420137 0.10806358458889226 0.0 0.0 0.0 0.0 0.0 0.0
 0.0 0.0 -0.03245512588420137 0.10806358458889226 0.0 0.0 0.0 0.0
14.265049 0.0 0.0 0.0 0.0 -0.014347536610150056 0.11169869551536962 0.0 0.0
 0.0 0.0 0.0 0.0 0.0 0.0 -0.014347536610150056 0.11169869551536962
 -0.014347536610150056 0.11169869551536962 0.0 0.0 0.0 0.0 0.0 0.0
 0.0 0.0 -0.014347536610150056 0.11169869551536962 0.0 0.0 0.0 0.0
14.280048 0.0 0.0 0.0 0.0 0.00407548064715144 0.11232723312035194 0.0 0.0
 0.0 0.0 0.0 0.0 0.0 0.0 0.00407548064715144 0.11232723312035194
 0.00407548064715144 0.11232723312035194 0.0 0.0 0.0 0.0 0.0 0.0
 0.0 0.0 0.00407548064715144 0.11232723312035194 0.0 0.0 0.0 0.0
14.295047 0.0 0.0 0.0 0.0 0.02231912290512634 0.10994375321187484 0.0 0.0
 0.0 0.0 0.0 0.0 0.0 0.0 0.02231912290512634 0.10994375321187484
 0.02231912290512634 0.10994375321187484 0.0 0.0 0.0 0.0 0.0 0.0
 0.0 0.0 0.02231912290512634 0.10994375321187484 0.0 0.0 0.0 0.0
14.310046 0.0 0.0 0.0 0.0 0.03989525919236036 0.10462353342183163 0.0 0.0
 0.0 0.0 0.0 0.0 0.0 0.0 0.03989525919236036 0.10462353342183163
 0.03989525919236036 0.10462353342183163 0.0 0.0 0.0 0.0 0.0 0.0
 0.0 0.0 0.03989525919236036 0.10462353342183163 0.0 0.0 0.0 0.0
14.325045 0.0 0.0 0.0 0.0 0.05633548412040037 0.0965202534123252 0.0 0.0
 0.0 0.0 0.0 0.0 0.0 0.0 0.05633548412040037 0.0965202534123252
 0.05633548412040037 0.0965202534123252 0.0 0.0 0.0 0.0 0.0 0.0
 0.0 0.0 0.05633548412040037 0.0965202534123252 0.0 0.0 0.0 0.0
14.340044 0.0 0.0 0.0 0.0 0.0712035942166607 0.08586158308790373 0.0 0.0
 0.0 0.0 0.0 0.0 0.0 0.0 0.0712035942166607 0.08586158308790373
 0.0712035942166607 0.08586158308790373 0.0 0.0 0.0 0.0 0.0 0.0
 0.0 0.0 0.0712035942166607 0.08586158308790373 0.0 0.0 0.0 0.0
14.355043 0.0 0.0 0.0 0.0 0.08410715487792883 0.07294280478895304 0.0 0.0
 0.0 0.0 0.0 0.0 0.0 0.0 0.08410715487792883 0.07294280478895304
 0.08410715487792883 0.07294280478895304 0.0 0.0 0.0 0.0 0.0 0.0
 0.0 0.0 0.08410715487792883 0.07294280478895304 0.0 0.0 0.0 0.0
14.370042 0.0 0.0 0.0 0.0 0.09470785139595264 0.058118647652996895 0.0 0.0
 0.0 0.0 0.0 0.0 0.0 0.0 0.09470785139595264 0.058118647652996895
 0.09470785139595264 0.058118647652996895 0.0 0.0 0.0 0.0 0.0 0.0
 0.0 0.0 0.09470785139595264 0.058118647652996895 0.0 0.0 0.0 0.0
14.385041 0.0 0.0 0.0 0.0 0.10273035121889186 0.041793559575713186 0.0 0.0
 0.0 0.0 0.0 0.0 0.0 0.0 0.10273035121889186 0.041793559575713186
 0.10273035121889186 0.041793559575713186 0.0 0.0 0.0 0.0 0.0 0.0
 0.0 0.0 0.10273035121889186 0.041793559575713186 0.0 0.0 0.0 0.0
14.40004 0.0 0.0 0.0 0.0 0.10796944551073916 0.024410683234994145 0.0 0.0
 0.0 0.0 0.0 0.0 0.0 0.0 0.10796944551073916 0.024410683234994145
 0.10796944551073916 0.024410683234994145 0.0 0.0 0.0 0.0 0.0 0.0
 0.0 0.0 0.10796944551073916 0.024410683234994145 0.0 0.0 0.0 0.0
14.415039 0.0 0.0 0.0 0.0 0.11029528503398983 0.006439836381931749 0.0 0.0
 0.0 0.0 0.0 0.0 0.0 0.0 0.11029528503398983 0.006439836381931749
 0.11029528503398983 0.006439836381931749 0.0 0.0 0.0 0.0 0.0 0.0
 0.0 0.0 0.11029528503398983 0.006439836381931749 0.0 0.0 0.0 0.0
14.430038 0.0 0.0 0.0 0.0 0.10965657712760153 -0.011635177824289342 0.0 0.0
 0.0 0.0 0.0 0.0 0.0 0.0 0.10965657712760153 -0.011635177824289342
 0.10965657712760153 -0.011635177824289342 0.0 0.0 0.0 0.0 0.0 0.0
 0.0 0.0 0.10965657712760153 -0.011635177824289342 0.0 0.0 0.0 0.0
14.445037 0.0 0.0 0.0 0.0 0.10608166567921914 -0.02932958791152584 0.0 0.0
 0.0 0.0 0.0 0.0 0.0 0.0 0.10608166567921914 -0.02932958791152584
 0.10608166567921914 -0.02932958791152584 0.0 0.0 0.0 0.0 0.0 0.0
 0.0 0.0 0.10608166567921914 -0.02932958791152584 0.0 0.0 0.0 0.0
14.460036 0.0 0.0 0.0 0.0 0.09967747300768413 -0.04617064858403142 0.0 0.0
 0.0 0.0 0.0 0.0 0.0 0.0 0.09967747300768413 -0.04617064858403142
 0.09967747300768413 -0.04617064858403142 0.0 0.0 0.0 0.0 0.0 0.0
 0.0 0.0 0.09967747300768413 -0.04617064858403142 0.0 0.0 0.0 0.0
14.475035 0.0 0.0 0.0 0.0 0.09062633994462285 -0.06171026446836748 0.0 0.0
 0.0 0.0 0.0 0.0 0.0 0.0 0.09062633994462285 -0.06171026446836748
 0.09062633994462285 -0.06171026446836748 0.0 0.0 0.0 0.0 0.0 0.0
 0.0 0.0 0.09062633994462285 -0.06171026446836748 0.0 0.0 0.0 0.0
14.490034 0.0 0.0 0.0 0.0 0.07918085659349171 -0.07553690619829108 0.0 0.0
 0.0 0.0 0.0 0.0 0.0 0.0 0.07918085659349171 -0.07553690619829108
 0.07918085659349171 -0.07553690619829108 0.0 0.0 0.0 0.0 0.0 0.0
 0.0 0.0 0.07918085659349171 -0.07553690619829108 0.0 0.0 0.0 0.0
14.505033 0.0 0.0 0.0 0.0 0.0656568297495157 -0.08728650212870352 0.0 0.0
 0.0 0.0 0.0 0.0 0.0 0.0 0.0656568297495157 -0.08728650212870352
 0.0656568297495157 -0.08728650212870352 0.0 0.0 0.0 0.0 0.0 0.0
 0.0 0.0 0.0656568297495157 -0.08728650212870352 0.0 0.0 0.0 0.0
14.520032 0.0 0.0 0.0 0.0 0.05042458236045202 -0.09665201758950281 0.0 0.0
 0.0 0.0 0.0 0.0 0.0 0.0 0.05042458236045202 -0.09665201758950281
 0.05042458236045202 -0.09665201758950281 0.0 0.0 0.0 0.0 0.0 0.0
 0.0 0.0 0.05042458236045202 -0.09665201758950281 0.0 0.0 0.0 0.0
14.535031 0.0 0.0 0.0 0.0 0.03389882438725832 -0.10339146982637262 0.0 0.0
 0.0 0.0 0.0 0.0 0.0 0.0 0.03389882438725832 -0.10339146982637262
 0.03389882438725832 -0.10339146982637262 0.0 0.0 0.0 0.0 0.0 0.0
 0.0 0.0 0.03389882438725832 -0.10339146982637262 0.0 0.0 0.0 0.0
14.55003 0.0 0.0 0.0 0.0 0.016527371826830072 -0.10733416962817714 0.0 0.0
 0.0 0.0 0.0 0.0 0.0 0.0 0.016527371826830072 -0.10733416962817714
 0.016527371826830072 -0.10733416962817714 0.0 0.0 0.0 0.0 0.0 0.0
 0.0 0.0 0.016527371826830072 -0.10733416962817714 0.0 0.0 0.0 0.0
14.565029 0.0 0.0 0.0 0.0 -0.0012209794924740412 -0.10838502893725079 0.0 0.0
 0.0 0.0 0.0 0.0 0.0 0.0 -0.0012209794924740412 -0.10838502893725079
 -0.0012209794924740412 -0.10838502893725079 0.0 0.0 0.0 0.0 0.0 0.0
 0.0 0.0 -0.0012209794924740412 -0.10838502893725079 0.0 0.0 0.0 0.0
14.580028 0.0 0.0 0.0 0.0 -0.018869097210281852 -0.10652682616515272 0.0 0.0
 0.0 0.0 0.0 0.0 0.0 0.0 -0.018869097210281852 -0.10652682616515272
 -0.018869097210281852 -0.10652682616515272 0.0 0.0 0.0 0.0 0.0 0.0
 0.0 0.0 -0.018869097210281852 -0.10652682616515272 0.0 0.0 0.0 0.0
14.595027 0.0 0.0 0.0 0.0 -0.03594433204769766 -0.10182037607221403 0.0 0.0
 0.0 0.0 0.0 0.0 0.0 0.0 -0.03594433204769766 -0.10182037607221403
 -0.03594433204769766 -0.10182037607221403 0.0 0.0 0.0 0.0 0.0 0.0
 0.0 0.0 -0.03594433204769766 -0.10182037607221403 0.0 0.0 0.0 0.0
14.610026 0.0 0.0 0.0 0.0 -0.05199116948565418 -0.09440260742704688 0.0 0.0
 0.0 0.0 0.0 0.0 0.0 0.0 -0.05199116948565418 -0.09440260742704688
 -0.05199116948565418 -0.09440260742704688 0.0 0.0 0.0 0.0 0.0 0.0
 0.0 0.0 -0.05199116948565418 -0.09440260742704688 0.0 0.0 0.0 0.0
14.625025 0.0 0.0 0.0 0.0 -0.06658337502947918 -0.08448260772694698 0.0 0.0
 0.0 0.0 0.0 0.0 0.0 0.0 -0.06658337502947918 -0.08448260772694698
 -0.06658337502947918 -0.08448260772694698 0.0 0.0 0.0 0.0 0.0 0.0
 0.0 0.0 -0.06658337502947918 -0.08448260772694698 0.0 0.0 0.0 0.0
14.640024 0.0 0.0 0.0 0.0 -0.07933530940291382 -0.07233574853031195 0.0 0.0
 0.0 0.0 0.0 0.0 0.0 0.0 -0.07933530940291382 -0.07233574853031195
 -0.07933530940291382 -0.07233574853031195 0.0 0.0 0.0 0.0 0.0 0.0
 0.0 0.0 -0.07933530940291382 -0.07233574853031195 0.0 0.0 0.0 0.0
14.655023 0.0 0.0 0.0 0.0 -0.0899121134569656 -0.058296055979878254 0.0 0.0
 0.0 0.0 0.0 0.0 0.0 0.0 -0.0899121134569656 -0.058296055979878254
 -0.0899121134569656 -0.058296055979878254 0.0 0.0 0.0 0.0 0.0 0.0
 0.0 0.0 -0.0899121134569656 -0.058296055979878254 0.0 0.0 0.0 0.0
14.670022 0.0 0.0 0.0 0.0 -0.09803849398237234 -0.042747037524575995 0.0 0.0
 0.0 0.0 0.0 0.0 0.0 0.0 -0.09803849398237234 -0.042747037524575995
 -0.09803849398237234 -0.042747037524575995 0.0 0.0 0.0 0.0 0.0 0.0
 0.0 0.0 -0.09803849398237234 -0.042747037524575995 0.0 0.0 0.0 0.0
14.685021 0.0 0.0 0.0 0.0 -0.10350588010753577 -0.026111216450864044 0.0 0.0
 0.0 0.0 0.0 0.0 0.0 0.0 -0.10350588010753577 -0.026111216450864044
 -0.10350588010753577 -0.026111216450864044 0.0 0.0 0.0 0.0 0.0 0.0
 0.0 0.0 -0.10350588010753577 -0.026111216450864044 0.0 0.0 0.0 0.0
14.70002 0.0 0.0 0.0 0.0 -0.10617776448960797 -0.008838659543966051 0.0 0.0
 0.0 0.0 0.0 0.0 0.0 0.0 -0.10617776448960797 -0.008838659543966051
 -0.10617776448960797 -0.008838659543966051 0.0 0.0 0.0 0.0 0.0 0.0
 0.0 0.0 -0.10617776448960797 -0.008838659543966051 0.0 0.0 0.0 0.0
14.715019 0.0 0.0 0.0 0.0 -0.10599309284896251 0.00860519086248107 0.0 0.0
 0.0 0.0 0.0 0.0 0.0 0.0 -0.10599309284896251 0.00860519086248107
 -0.10599309284896251 0.00860519086248107 0.0 0.0 0.0 0.0 0.0 0.0
 0.0 0.0 -0.10599309284896251 0.00860519086248107 0.0 0.0 0.0 0.0
14.730018 0.0 0.0 0.0 0.0 -0.10296761821664163 0.025752051690688393 0.0 0.0
 0.0 0.0 0.0 0.0 0.0 0.0 -0.10296761821664163 0.025752051690688393
 -0.10296761821664163 0.025752051690688393 0.0 0.0 0.0 0.0 0.0 0.0
 0.0 0.0 -0.10296761821664163 0.025752051690688393 0.0 0.0 0.0 0.0
14.745017 0.0 0.0 0.0 0.0 -0.09719319113181536 0.042143363396464295 0.0 0.0
 0.0 0.0 0.0 0.0 0.0 0.0 -0.09719319113181536 0.042143363396464295
 -0.09719319113181536 0.042143363396464295 0.0 0.0 0.0 0.0 0.0 0.0
 0.0 0.0 -0.09719319113181536 0.042143363396464295 0.0 0.0 0.0 0.0
14.760016 0.0 0.0 0.0 0.0 -0.08883501246368172 0.05734254679368959 0.0 0.0
 0.0 0.0 0.0 0.0 0.0 0.0 -0.08883501246368172 0.05734254679368959
 -0.08883501246368172 0.05734254679368959 0.0 0.0 0.0 0.0 0.0 0.0
 0.0 0.0 -0.08883501246368172 0.05734254679368959 0.0 0.0 0.0 0.0
14.775015 0.0 0.0 0.0 0.0 -0.07812693005130963 0.07094662498210473 0.0 0.0
 0.0 0.0 0.0 0.0 0.0 0.0 -0.07812693005130963 0.07094662498210473
 -0.07812693005130963 0.07094662498210473 0.0 0.0 0.0 0.0 0.0 0.0
 0.0 0.0 -0.07812693005130963 0.07094662498210473 0.0 0.0 0.0 0.0
14.790014 0.0 0.0 0.0 0.0 -0.06536491249749007 0.08259690116227696 0.0 0.0
 0.0 0.0 0.0 0.0 0.0 0.0 -0.06536491249749007 0.08259690116227696
 -0.06536491249749007 0.08259690116227696 0.0 0.0 0.0 0.0 0.0 0.0
 0.0 0.0 -0.06536491249749007 0.08259690116227696 0.0 0.0 0.0 0.0
14.805013 0.0 0.0 0.0 0.0 -0.05089888182968958 0.09198840957117108 0.0 0.0
 0.0 0.0 0.0 0.0 0.0 0.0 -0.05089888182968958 0.09198840957117108
 -0.05089888182968958 0.09198840957117108 0.0 0.0 0.0 0.0 0.0 0.0
 0.0 0.0 -0.05089888182968958 0.09198840957117108 0.0 0.0 0.0 0.0
14.820012 0.0 0.0 0.0 0.0 -0.03512313006933719 0.09887789070535406 0.0 0.0
 0.0 0.0 0.0 0.0 0.0 0.0 -0.03512313006933719 0.09887789070535406
 -0.03512313006933719 0.09887789070535406 0.0 0.0 0.0 0.0 0.0 0.0
 0.0 0.0 -0.03512313006933719 0.09887789070535406 0.0 0.0 0.0 0.0
14.835011 0.0 0.0 0.0 0.0 -0.018465581886768497 0.10309008247907325 0.0 0.0
 0.0 0.0 0.0 0.0 0.0 0.0 -0.018465581886768497 0.10309008247907325
 -0.018465581886768497 0.10309008247907325 0.0 0.0 0.0 0.0 0.0 0.0
 0.0 0.0 -0.018465581886768497 0.10309008247907325 0.0 0.0 0.0 0.0
14.85001 0.0 0.0 0.0 0.0 -0.0013761954903380852 0.10452216488218538 0.0 0.0
 0.0 0.0 0.0 0.0 0.0 0.0 -0.0013761954903380852 0.10452216488218538
 -0.0013761954903380852 0.10452216488218538 0.0 0.0 0.0 0.0 0.0 0.0
 0.0 0.0 -0.0013761954903380852 0.10452216488218538 0.0 0.0 0.0 0.0
14.865009 0.0 0.0 0.0 0.0 0.01568518407316185 0.10314624580749296 0.0 0.0
 0.0 0.0 0.0 0.0 0.0 0.0 0.01568518407316185 0.10314624580749296
 0.01568518407316185 0.10314624580749296 0.0 0.0 0.0 0.0 0.0 0.0
 0.0 0.0 0.01568518407316185 0.10314624580749296 0.0 0.0 0.0 0.0
14.880008 0.0 0.0 0.0 0.0 0.0322611915050829 0.09900982864968323 0.0 0.0
 0.0 0.0 0.0 0.0 0.0 0.0 0.0322611915050829 0.09900982864968323
 0.0322611915050829 0.09900982864968323 0.0 0.0 0.0 0.0 0.0 0.0
 0.0 0.0 0.0322611915050829 0.09900982864968323 0.0 0.0 0.0 0.0
14.895007 0.0 0.0 0.0 0.0 0.04790919533797381 0.09223425660935879 0.0 0.0
 0.0 0.0 0.0 0.0 0.0 0.0 0.04790919533797381 0.09223425660935879
 0.04790919533797381 0.09223425660935879 0.0 0.0 0.0 0.0 0.0 0.0
 0.0 0.0 0.04790919533797381 0.09223425660935879 0.0 0.0 0.0 0.0
14.910006 0.0 0.0 0.0 0.0 0.06221311136501292 0.08301118290375213 0.0 0.0
 0.0 0.0 0.0 0.0 0.0 0.0 0.06221311136501292 0.08301118290375213
 0.06221311136501292 0.08301118290375213 0.0 0.0 0.0 0.0 0.0 0.0
 0.0 0.0 0.06221311136501292 0.08301118290375213 0.0 0.0 0.0 0.0
14.925005 0.0 0.0 0.0 0.0 0.07479446028906411 0.07159716883591119 0.0 0.0
 0.0 0.0 0.0 0.0 0.0 0.0 0.07479446028906411 0.07159716883591119
 0.07479446028906411 0.07159716883591119 0.0 0.0 0.0 0.0 0.0 0.0
 0.0 0.0 0.07479446028906411 0.07159716883591119 0.0 0.0 0.0 0.0
14.940004 0.0 0.0 0.0 0.0 0.08532237589002589 0.0583065614973863 0.0 0.0
 0.0 0.0 0.0 0.0 0.0 0.0 0.08532237589002589 0.0583065614973863
 0.08532237589002589 0.0583065614973863 0.0 0.0 0.0 0.0 0.0 0.0
 0.0 0.0 0.08532237589002589 0.0583065614973863 0.0 0.0 0.0 0.0
14.955003 0.0 0.0 0.0 0.0 0.09352229923101822 0.043502848450689066 0.0 0.0
 0.0 0.0 0.0 0.0 0.0 0.0 0.09352229923101822 0.043502848450689066
 0.09352229923101822 0.043502848450689066 0.0 0.0 0.0 0.0 0.0 0.0
 0.0 0.0 0.09352229923101822 0.043502848450689066 0.0 0.0 0.0 0.0
14.970002 0.0 0.0 0.0 0.0 0.09918313063076252 0.02758872685052586 0.0 0.0
 0.0 0.0 0.0 0.0 0.0 0.0 0.09918313063076252 0.02758872685052586
 0.09918313063076252 0.02758872685052586 0.0 0.0 0.0 0.0 0.0 0.0
 0.0 0.0 0.09918313063076252 0.02758872685052586 0.0 0.0 0.0 0.0
14.985001 0.0 0.0 0.0 0.0 0.10216265332487447 0.010995158061130278 0.0 0.0
 0.0 0.0 0.0 0.0 0.0 0.0 0.10216265332487447 0.010995158061130278
 0.10216265332487447 0.010995158061130278 0.0 0.0 0.0 0.0 0.0 0.0
 0.0 0.0 0.10216265332487447 0.010995158061130278 0.0 0.0 0.0 0.0
15.0 0.0 0.0 0.0 0.0 0.10239108976922526 -0.005830294965963023 0.0 0.0
 0.0 0.0 0.0 0.0 0.0 0.0 0.10239108976922526 -0.005830294965963023
 0.10239108976922526 -0.005830294965963023 0.0 0.0 0.0 0.0 0.0 0.0
 0.0 0.0 0.10239108976922526 -0.005830294965963023 0.0 0.0 0.0 0.0
